9600
Lattice="55.1101040835 0.0 0.0 0.0 60.3387031552 0.0 0.0 0.0 37.711689472" Properties=species:S:1:pos:R:3 pbc="T T T"
Cu       0.00000000       0.00000000       0.00000000
Cu       0.00000000       1.88558447       1.88558447
Cu       0.00000000       0.00000000       3.77116895
Cu       0.00000000       1.88558447       5.65675342
Cu       0.00000000       0.00000000       7.54233789
Cu       0.00000000       1.88558447       9.42792236
Cu       0.00000000       0.00000000      11.31350684
Cu       0.00000000       1.88558447      13.19909131
Cu       0.00000000       0.00000000      15.08467579
Cu       0.00000000       1.88558447      16.97026026
Cu       0.00000000       0.00000000      18.85584474
Cu       0.00000000       1.88558447      20.74142921
Cu       0.00000000       0.00000000      22.62701368
Cu       0.00000000       1.88558447      24.51259815
Cu       0.00000000       0.00000000      26.39818263
Cu       0.00000000       1.88558447      28.28376710
Cu       0.00000000       0.00000000      30.16935158
Cu       0.00000000       1.88558447      32.05493605
Cu       0.00000000       0.00000000      33.94052052
Cu       0.00000000       1.88558447      35.82610499
Cu       0.00000000       3.77116895       0.00000000
Cu       0.00000000       5.65675342       1.88558447
Cu       0.00000000       3.77116895       3.77116895
Cu       0.00000000       5.65675342       5.65675342
Cu       0.00000000       3.77116895       7.54233789
Cu       0.00000000       5.65675342       9.42792236
Cu       0.00000000       3.77116895      11.31350684
Cu       0.00000000       5.65675342      13.19909131
Cu       0.00000000       3.77116895      15.08467579
Cu       0.00000000       5.65675342      16.97026026
Cu       0.00000000       3.77116895      18.85584474
Cu       0.00000000       5.65675342      20.74142921
Cu       0.00000000       3.77116895      22.62701368
Cu       0.00000000       5.65675342      24.51259815
Cu       0.00000000       3.77116895      26.39818263
Cu       0.00000000       5.65675342      28.28376710
Cu       0.00000000       3.77116895      30.16935158
Cu       0.00000000       5.65675342      32.05493605
Cu       0.00000000       3.77116895      33.94052052
Cu       0.00000000       5.65675342      35.82610499
Cu       0.00000000       7.54233789       0.00000000
Cu       0.00000000       9.42792236       1.88558447
Cu       0.00000000       7.54233789       3.77116895
Cu       0.00000000       9.42792236       5.65675342
Cu       0.00000000       7.54233789       7.54233789
Cu       0.00000000       9.42792236       9.42792236
Cu       0.00000000       7.54233789      11.31350684
Cu       0.00000000       9.42792236      13.19909131
Cu       0.00000000       7.54233789      15.08467579
Cu       0.00000000       9.42792236      16.97026026
Cu       0.00000000       7.54233789      18.85584474
Cu       0.00000000       9.42792236      20.74142921
Cu       0.00000000       7.54233789      22.62701368
Cu       0.00000000       9.42792236      24.51259815
Cu       0.00000000       7.54233789      26.39818263
Cu       0.00000000       9.42792236      28.28376710
Cu       0.00000000       7.54233789      30.16935158
Cu       0.00000000       9.42792236      32.05493605
Cu       0.00000000       7.54233789      33.94052052
Cu       0.00000000       9.42792236      35.82610499
Cu       0.00000000      11.31350684       0.00000000
Cu       0.00000000      13.19909131       1.88558447
Cu       0.00000000      11.31350684       3.77116895
Cu       0.00000000      13.19909131       5.65675342
Cu       0.00000000      11.31350684       7.54233789
Cu       0.00000000      13.19909131       9.42792236
Cu       0.00000000      11.31350684      11.31350684
Cu       0.00000000      13.19909131      13.19909131
Cu       0.00000000      11.31350684      15.08467579
Cu       0.00000000      13.19909131      16.97026026
Cu       0.00000000      11.31350684      18.85584474
Cu       0.00000000      13.19909131      20.74142921
Cu       0.00000000      11.31350684      22.62701368
Cu       0.00000000      13.19909131      24.51259815
Cu       0.00000000      11.31350684      26.39818263
Cu       0.00000000      13.19909131      28.28376710
Cu       0.00000000      11.31350684      30.16935158
Cu       0.00000000      13.19909131      32.05493605
Cu       0.00000000      11.31350684      33.94052052
Cu       0.00000000      13.19909131      35.82610499
Cu       0.00000000      15.08467579       0.00000000
Cu       0.00000000      16.97026026       1.88558447
Cu       0.00000000      15.08467579       3.77116895
Cu       0.00000000      16.97026026       5.65675342
Cu       0.00000000      15.08467579       7.54233789
Cu       0.00000000      16.97026026       9.42792236
Cu       0.00000000      15.08467579      11.31350684
Cu       0.00000000      16.97026026      13.19909131
Cu       0.00000000      15.08467579      15.08467579
Cu       0.00000000      16.97026026      16.97026026
Cu       0.00000000      15.08467579      18.85584474
Cu       0.00000000      16.97026026      20.74142921
Cu       0.00000000      15.08467579      22.62701368
Cu       0.00000000      16.97026026      24.51259815
Cu       0.00000000      15.08467579      26.39818263
Cu       0.00000000      16.97026026      28.28376710
Cu       0.00000000      15.08467579      30.16935158
Cu       0.00000000      16.97026026      32.05493605
Cu       0.00000000      15.08467579      33.94052052
Cu       0.00000000      16.97026026      35.82610499
Cu       0.00000000      18.85584474       0.00000000
Cu       0.00000000      20.74142921       1.88558447
Cu       0.00000000      18.85584474       3.77116895
Cu       0.00000000      20.74142921       5.65675342
Cu       0.00000000      18.85584474       7.54233789
Cu       0.00000000      20.74142921       9.42792236
Cu       0.00000000      18.85584474      11.31350684
Cu       0.00000000      20.74142921      13.19909131
Cu       0.00000000      18.85584474      15.08467579
Cu       0.00000000      20.74142921      16.97026026
Cu       0.00000000      18.85584474      18.85584474
Cu       0.00000000      20.74142921      20.74142921
Cu       0.00000000      18.85584474      22.62701368
Cu       0.00000000      20.74142921      24.51259815
Cu       0.00000000      18.85584474      26.39818263
Cu       0.00000000      20.74142921      28.28376710
Cu       0.00000000      18.85584474      30.16935158
Cu       0.00000000      20.74142921      32.05493605
Cu       0.00000000      18.85584474      33.94052052
Cu       0.00000000      20.74142921      35.82610499
Cu       0.00000000      22.62701368       0.00000000
Cu       0.00000000      24.51259815       1.88558447
Cu       0.00000000      22.62701368       3.77116895
Cu       0.00000000      24.51259815       5.65675342
Cu       0.00000000      22.62701368       7.54233789
Cu       0.00000000      24.51259815       9.42792236
Cu       0.00000000      22.62701368      11.31350684
Cu       0.00000000      24.51259815      13.19909131
Cu       0.00000000      22.62701368      15.08467579
Cu       0.00000000      24.51259815      16.97026026
Cu       0.00000000      22.62701368      18.85584474
Cu       0.00000000      24.51259815      20.74142921
Cu       0.00000000      22.62701368      22.62701368
Cu       0.00000000      24.51259815      24.51259815
Cu       0.00000000      22.62701368      26.39818263
Cu       0.00000000      24.51259815      28.28376710
Cu       0.00000000      22.62701368      30.16935158
Cu       0.00000000      24.51259815      32.05493605
Cu       0.00000000      22.62701368      33.94052052
Cu       0.00000000      24.51259815      35.82610499
Cu       0.00000000      26.39818263       0.00000000
Cu       0.00000000      28.28376710       1.88558447
Cu       0.00000000      26.39818263       3.77116895
Cu       0.00000000      28.28376710       5.65675342
Cu       0.00000000      26.39818263       7.54233789
Cu       0.00000000      28.28376710       9.42792236
Cu       0.00000000      26.39818263      11.31350684
Cu       0.00000000      28.28376710      13.19909131
Cu       0.00000000      26.39818263      15.08467579
Cu       0.00000000      28.28376710      16.97026026
Cu       0.00000000      26.39818263      18.85584474
Cu       0.00000000      28.28376710      20.74142921
Cu       0.00000000      26.39818263      22.62701368
Cu       0.00000000      28.28376710      24.51259815
Cu       0.00000000      26.39818263      26.39818263
Cu       0.00000000      28.28376710      28.28376710
Cu       0.00000000      26.39818263      30.16935158
Cu       0.00000000      28.28376710      32.05493605
Cu       0.00000000      26.39818263      33.94052052
Cu       0.00000000      28.28376710      35.82610499
Cu       0.00000000      30.16935158       0.00000000
Cu       0.00000000      32.05493605       1.88558447
Cu       0.00000000      30.16935158       3.77116895
Cu       0.00000000      32.05493605       5.65675342
Cu       0.00000000      30.16935158       7.54233789
Cu       0.00000000      32.05493605       9.42792236
Cu       0.00000000      30.16935158      11.31350684
Cu       0.00000000      32.05493605      13.19909131
Cu       0.00000000      30.16935158      15.08467579
Cu       0.00000000      32.05493605      16.97026026
Cu       0.00000000      30.16935158      18.85584474
Cu       0.00000000      32.05493605      20.74142921
Cu       0.00000000      30.16935158      22.62701368
Cu       0.00000000      32.05493605      24.51259815
Cu       0.00000000      30.16935158      26.39818263
Cu       0.00000000      32.05493605      28.28376710
Cu       0.00000000      30.16935158      30.16935158
Cu       0.00000000      32.05493605      32.05493605
Cu       0.00000000      30.16935158      33.94052052
Cu       0.00000000      32.05493605      35.82610499
Cu       0.00000000      33.94052052       0.00000000
Cu       0.00000000      35.82610499       1.88558447
Cu       0.00000000      33.94052052       3.77116895
Cu       0.00000000      35.82610499       5.65675342
Cu       0.00000000      33.94052052       7.54233789
Cu       0.00000000      35.82610499       9.42792236
Cu       0.00000000      33.94052052      11.31350684
Cu       0.00000000      35.82610499      13.19909131
Cu       0.00000000      33.94052052      15.08467579
Cu       0.00000000      35.82610499      16.97026026
Cu       0.00000000      33.94052052      18.85584474
Cu       0.00000000      35.82610499      20.74142921
Cu       0.00000000      33.94052052      22.62701368
Cu       0.00000000      35.82610499      24.51259815
Cu       0.00000000      33.94052052      26.39818263
Cu       0.00000000      35.82610499      28.28376710
Cu       0.00000000      33.94052052      30.16935158
Cu       0.00000000      35.82610499      32.05493605
Cu       0.00000000      33.94052052      33.94052052
Cu       0.00000000      35.82610499      35.82610499
Cu       0.00000000      37.71168947       0.00000000
Cu       0.00000000      39.59727394       1.88558447
Cu       0.00000000      37.71168947       3.77116895
Cu       0.00000000      39.59727394       5.65675342
Cu       0.00000000      37.71168947       7.54233789
Cu       0.00000000      39.59727394       9.42792236
Cu       0.00000000      37.71168947      11.31350684
Cu       0.00000000      39.59727394      13.19909131
Cu       0.00000000      37.71168947      15.08467579
Cu       0.00000000      39.59727394      16.97026026
Cu       0.00000000      37.71168947      18.85584474
Cu       0.00000000      39.59727394      20.74142921
Cu       0.00000000      37.71168947      22.62701368
Cu       0.00000000      39.59727394      24.51259815
Cu       0.00000000      37.71168947      26.39818263
Cu       0.00000000      39.59727394      28.28376710
Cu       0.00000000      37.71168947      30.16935158
Cu       0.00000000      39.59727394      32.05493605
Cu       0.00000000      37.71168947      33.94052052
Cu       0.00000000      39.59727394      35.82610499
Cu       0.00000000      41.48285842       0.00000000
Cu       0.00000000      43.36844289       1.88558447
Cu       0.00000000      41.48285842       3.77116895
Cu       0.00000000      43.36844289       5.65675342
Cu       0.00000000      41.48285842       7.54233789
Cu       0.00000000      43.36844289       9.42792236
Cu       0.00000000      41.48285842      11.31350684
Cu       0.00000000      43.36844289      13.19909131
Cu       0.00000000      41.48285842      15.08467579
Cu       0.00000000      43.36844289      16.97026026
Cu       0.00000000      41.48285842      18.85584474
Cu       0.00000000      43.36844289      20.74142921
Cu       0.00000000      41.48285842      22.62701368
Cu       0.00000000      43.36844289      24.51259815
Cu       0.00000000      41.48285842      26.39818263
Cu       0.00000000      43.36844289      28.28376710
Cu       0.00000000      41.48285842      30.16935158
Cu       0.00000000      43.36844289      32.05493605
Cu       0.00000000      41.48285842      33.94052052
Cu       0.00000000      43.36844289      35.82610499
Cu       0.00000000      45.25402737       0.00000000
Cu       0.00000000      47.13961184       1.88558447
Cu       0.00000000      45.25402737       3.77116895
Cu       0.00000000      47.13961184       5.65675342
Cu       0.00000000      45.25402737       7.54233789
Cu       0.00000000      47.13961184       9.42792236
Cu       0.00000000      45.25402737      11.31350684
Cu       0.00000000      47.13961184      13.19909131
Cu       0.00000000      45.25402737      15.08467579
Cu       0.00000000      47.13961184      16.97026026
Cu       0.00000000      45.25402737      18.85584474
Cu       0.00000000      47.13961184      20.74142921
Cu       0.00000000      45.25402737      22.62701368
Cu       0.00000000      47.13961184      24.51259815
Cu       0.00000000      45.25402737      26.39818263
Cu       0.00000000      47.13961184      28.28376710
Cu       0.00000000      45.25402737      30.16935158
Cu       0.00000000      47.13961184      32.05493605
Cu       0.00000000      45.25402737      33.94052052
Cu       0.00000000      47.13961184      35.82610499
Cu       0.00000000      49.02519631       0.00000000
Cu       0.00000000      50.91078078       1.88558447
Cu       0.00000000      49.02519631       3.77116895
Cu       0.00000000      50.91078078       5.65675342
Cu       0.00000000      49.02519631       7.54233789
Cu       0.00000000      50.91078078       9.42792236
Cu       0.00000000      49.02519631      11.31350684
Cu       0.00000000      50.91078078      13.19909131
Cu       0.00000000      49.02519631      15.08467579
Cu       0.00000000      50.91078078      16.97026026
Cu       0.00000000      49.02519631      18.85584474
Cu       0.00000000      50.91078078      20.74142921
Cu       0.00000000      49.02519631      22.62701368
Cu       0.00000000      50.91078078      24.51259815
Cu       0.00000000      49.02519631      26.39818263
Cu       0.00000000      50.91078078      28.28376710
Cu       0.00000000      49.02519631      30.16935158
Cu       0.00000000      50.91078078      32.05493605
Cu       0.00000000      49.02519631      33.94052052
Cu       0.00000000      50.91078078      35.82610499
Cu       0.00000000      52.79636526       0.00000000
Cu       0.00000000      54.68194973       1.88558447
Cu       0.00000000      52.79636526       3.77116895
Cu       0.00000000      54.68194973       5.65675342
Cu       0.00000000      52.79636526       7.54233789
Cu       0.00000000      54.68194973       9.42792236
Cu       0.00000000      52.79636526      11.31350684
Cu       0.00000000      54.68194973      13.19909131
Cu       0.00000000      52.79636526      15.08467579
Cu       0.00000000      54.68194973      16.97026026
Cu       0.00000000      52.79636526      18.85584474
Cu       0.00000000      54.68194973      20.74142921
Cu       0.00000000      52.79636526      22.62701368
Cu       0.00000000      54.68194973      24.51259815
Cu       0.00000000      52.79636526      26.39818263
Cu       0.00000000      54.68194973      28.28376710
Cu       0.00000000      52.79636526      30.16935158
Cu       0.00000000      54.68194973      32.05493605
Cu       0.00000000      52.79636526      33.94052052
Cu       0.00000000      54.68194973      35.82610499
Cu       0.00000000      56.56753421       0.00000000
Cu       0.00000000      58.45311868       1.88558447
Cu       0.00000000      56.56753421       3.77116895
Cu       0.00000000      58.45311868       5.65675342
Cu       0.00000000      56.56753421       7.54233789
Cu       0.00000000      58.45311868       9.42792236
Cu       0.00000000      56.56753421      11.31350684
Cu       0.00000000      58.45311868      13.19909131
Cu       0.00000000      56.56753421      15.08467579
Cu       0.00000000      58.45311868      16.97026026
Cu       0.00000000      56.56753421      18.85584474
Cu       0.00000000      58.45311868      20.74142921
Cu       0.00000000      56.56753421      22.62701368
Cu       0.00000000      58.45311868      24.51259815
Cu       0.00000000      56.56753421      26.39818263
Cu       0.00000000      58.45311868      28.28376710
Cu       0.00000000      56.56753421      30.16935158
Cu       0.00000000      58.45311868      32.05493605
Cu       0.00000000      56.56753421      33.94052052
Cu       0.00000000      58.45311868      35.82610499
Cu       3.67400694       0.00000000       0.00000000
Cu       3.67400694       1.88558447       1.88558447
Cu       3.67400694       0.00000000       3.77116895
Cu       3.67400694       1.88558447       5.65675342
Cu       3.67400694       0.00000000       7.54233789
Cu       3.67400694       1.88558447       9.42792236
Cu       3.67400694       0.00000000      11.31350684
Cu       3.67400694       1.88558447      13.19909131
Cu       3.67400694       0.00000000      15.08467579
Cu       3.67400694       1.88558447      16.97026026
Cu       3.67400694       0.00000000      18.85584474
Cu       3.67400694       1.88558447      20.74142921
Cu       3.67400694       0.00000000      22.62701368
Cu       3.67400694       1.88558447      24.51259815
Cu       3.67400694       0.00000000      26.39818263
Cu       3.67400694       1.88558447      28.28376710
Cu       3.67400694       0.00000000      30.16935158
Cu       3.67400694       1.88558447      32.05493605
Cu       3.67400694       0.00000000      33.94052052
Cu       3.67400694       1.88558447      35.82610499
Cu       3.67400694       3.77116895       0.00000000
Cu       3.67400694       5.65675342       1.88558447
Cu       3.67400694       3.77116895       3.77116895
Cu       3.67400694       5.65675342       5.65675342
Cu       3.67400694       3.77116895       7.54233789
Cu       3.67400694       5.65675342       9.42792236
Cu       3.67400694       3.77116895      11.31350684
Cu       3.67400694       5.65675342      13.19909131
Cu       3.67400694       3.77116895      15.08467579
Cu       3.67400694       5.65675342      16.97026026
Cu       3.67400694       3.77116895      18.85584474
Cu       3.67400694       5.65675342      20.74142921
Cu       3.67400694       3.77116895      22.62701368
Cu       3.67400694       5.65675342      24.51259815
Cu       3.67400694       3.77116895      26.39818263
Cu       3.67400694       5.65675342      28.28376710
Cu       3.67400694       3.77116895      30.16935158
Cu       3.67400694       5.65675342      32.05493605
Cu       3.67400694       3.77116895      33.94052052
Cu       3.67400694       5.65675342      35.82610499
Cu       3.67400694       7.54233789       0.00000000
Cu       3.67400694       9.42792236       1.88558447
Cu       3.67400694       7.54233789       3.77116895
Cu       3.67400694       9.42792236       5.65675342
Cu       3.67400694       7.54233789       7.54233789
Cu       3.67400694       9.42792236       9.42792236
Cu       3.67400694       7.54233789      11.31350684
Cu       3.67400694       9.42792236      13.19909131
Cu       3.67400694       7.54233789      15.08467579
Cu       3.67400694       9.42792236      16.97026026
Cu       3.67400694       7.54233789      18.85584474
Cu       3.67400694       9.42792236      20.74142921
Cu       3.67400694       7.54233789      22.62701368
Cu       3.67400694       9.42792236      24.51259815
Cu       3.67400694       7.54233789      26.39818263
Cu       3.67400694       9.42792236      28.28376710
Cu       3.67400694       7.54233789      30.16935158
Cu       3.67400694       9.42792236      32.05493605
Cu       3.67400694       7.54233789      33.94052052
Cu       3.67400694       9.42792236      35.82610499
Cu       3.67400694      11.31350684       0.00000000
Cu       3.67400694      13.19909131       1.88558447
Cu       3.67400694      11.31350684       3.77116895
Cu       3.67400694      13.19909131       5.65675342
Cu       3.67400694      11.31350684       7.54233789
Cu       3.67400694      13.19909131       9.42792236
Cu       3.67400694      11.31350684      11.31350684
Cu       3.67400694      13.19909131      13.19909131
Cu       3.67400694      11.31350684      15.08467579
Cu       3.67400694      13.19909131      16.97026026
Cu       3.67400694      11.31350684      18.85584474
Cu       3.67400694      13.19909131      20.74142921
Cu       3.67400694      11.31350684      22.62701368
Cu       3.67400694      13.19909131      24.51259815
Cu       3.67400694      11.31350684      26.39818263
Cu       3.67400694      13.19909131      28.28376710
Cu       3.67400694      11.31350684      30.16935158
Cu       3.67400694      13.19909131      32.05493605
Cu       3.67400694      11.31350684      33.94052052
Cu       3.67400694      13.19909131      35.82610499
Cu       3.67400694      15.08467579       0.00000000
Cu       3.67400694      16.97026026       1.88558447
Cu       3.67400694      15.08467579       3.77116895
Cu       3.67400694      16.97026026       5.65675342
Cu       3.67400694      15.08467579       7.54233789
Cu       3.67400694      16.97026026       9.42792236
Cu       3.67400694      15.08467579      11.31350684
Cu       3.67400694      16.97026026      13.19909131
Cu       3.67400694      15.08467579      15.08467579
Cu       3.67400694      16.97026026      16.97026026
Cu       3.67400694      15.08467579      18.85584474
Cu       3.67400694      16.97026026      20.74142921
Cu       3.67400694      15.08467579      22.62701368
Cu       3.67400694      16.97026026      24.51259815
Cu       3.67400694      15.08467579      26.39818263
Cu       3.67400694      16.97026026      28.28376710
Cu       3.67400694      15.08467579      30.16935158
Cu       3.67400694      16.97026026      32.05493605
Cu       3.67400694      15.08467579      33.94052052
Cu       3.67400694      16.97026026      35.82610499
Cu       3.67400694      18.85584474       0.00000000
Cu       3.67400694      20.74142921       1.88558447
Cu       3.67400694      18.85584474       3.77116895
Cu       3.67400694      20.74142921       5.65675342
Cu       3.67400694      18.85584474       7.54233789
Cu       3.67400694      20.74142921       9.42792236
Cu       3.67400694      18.85584474      11.31350684
Cu       3.67400694      20.74142921      13.19909131
Cu       3.67400694      18.85584474      15.08467579
Cu       3.67400694      20.74142921      16.97026026
Cu       3.67400694      18.85584474      18.85584474
Cu       3.67400694      20.74142921      20.74142921
Cu       3.67400694      18.85584474      22.62701368
Cu       3.67400694      20.74142921      24.51259815
Cu       3.67400694      18.85584474      26.39818263
Cu       3.67400694      20.74142921      28.28376710
Cu       3.67400694      18.85584474      30.16935158
Cu       3.67400694      20.74142921      32.05493605
Cu       3.67400694      18.85584474      33.94052052
Cu       3.67400694      20.74142921      35.82610499
Cu       3.67400694      22.62701368       0.00000000
Cu       3.67400694      24.51259815       1.88558447
Cu       3.67400694      22.62701368       3.77116895
Cu       3.67400694      24.51259815       5.65675342
Cu       3.67400694      22.62701368       7.54233789
Cu       3.67400694      24.51259815       9.42792236
Cu       3.67400694      22.62701368      11.31350684
Cu       3.67400694      24.51259815      13.19909131
Cu       3.67400694      22.62701368      15.08467579
Cu       3.67400694      24.51259815      16.97026026
Cu       3.67400694      22.62701368      18.85584474
Cu       3.67400694      24.51259815      20.74142921
Cu       3.67400694      22.62701368      22.62701368
Cu       3.67400694      24.51259815      24.51259815
Cu       3.67400694      22.62701368      26.39818263
Cu       3.67400694      24.51259815      28.28376710
Cu       3.67400694      22.62701368      30.16935158
Cu       3.67400694      24.51259815      32.05493605
Cu       3.67400694      22.62701368      33.94052052
Cu       3.67400694      24.51259815      35.82610499
Cu       3.67400694      26.39818263       0.00000000
Cu       3.67400694      28.28376710       1.88558447
Cu       3.67400694      26.39818263       3.77116895
Cu       3.67400694      28.28376710       5.65675342
Cu       3.67400694      26.39818263       7.54233789
Cu       3.67400694      28.28376710       9.42792236
Cu       3.67400694      26.39818263      11.31350684
Cu       3.67400694      28.28376710      13.19909131
Cu       3.67400694      26.39818263      15.08467579
Cu       3.67400694      28.28376710      16.97026026
Cu       3.67400694      26.39818263      18.85584474
Cu       3.67400694      28.28376710      20.74142921
Cu       3.67400694      26.39818263      22.62701368
Cu       3.67400694      28.28376710      24.51259815
Cu       3.67400694      26.39818263      26.39818263
Cu       3.67400694      28.28376710      28.28376710
Cu       3.67400694      26.39818263      30.16935158
Cu       3.67400694      28.28376710      32.05493605
Cu       3.67400694      26.39818263      33.94052052
Cu       3.67400694      28.28376710      35.82610499
Cu       3.67400694      30.16935158       0.00000000
Cu       3.67400694      32.05493605       1.88558447
Cu       3.67400694      30.16935158       3.77116895
Cu       3.67400694      32.05493605       5.65675342
Cu       3.67400694      30.16935158       7.54233789
Cu       3.67400694      32.05493605       9.42792236
Cu       3.67400694      30.16935158      11.31350684
Cu       3.67400694      32.05493605      13.19909131
Cu       3.67400694      30.16935158      15.08467579
Cu       3.67400694      32.05493605      16.97026026
Cu       3.67400694      30.16935158      18.85584474
Cu       3.67400694      32.05493605      20.74142921
Cu       3.67400694      30.16935158      22.62701368
Cu       3.67400694      32.05493605      24.51259815
Cu       3.67400694      30.16935158      26.39818263
Cu       3.67400694      32.05493605      28.28376710
Cu       3.67400694      30.16935158      30.16935158
Cu       3.67400694      32.05493605      32.05493605
Cu       3.67400694      30.16935158      33.94052052
Cu       3.67400694      32.05493605      35.82610499
Cu       3.67400694      33.94052052       0.00000000
Cu       3.67400694      35.82610499       1.88558447
Cu       3.67400694      33.94052052       3.77116895
Cu       3.67400694      35.82610499       5.65675342
Cu       3.67400694      33.94052052       7.54233789
Cu       3.67400694      35.82610499       9.42792236
Cu       3.67400694      33.94052052      11.31350684
Cu       3.67400694      35.82610499      13.19909131
Cu       3.67400694      33.94052052      15.08467579
Cu       3.67400694      35.82610499      16.97026026
Cu       3.67400694      33.94052052      18.85584474
Cu       3.67400694      35.82610499      20.74142921
Cu       3.67400694      33.94052052      22.62701368
Cu       3.67400694      35.82610499      24.51259815
Cu       3.67400694      33.94052052      26.39818263
Cu       3.67400694      35.82610499      28.28376710
Cu       3.67400694      33.94052052      30.16935158
Cu       3.67400694      35.82610499      32.05493605
Cu       3.67400694      33.94052052      33.94052052
Cu       3.67400694      35.82610499      35.82610499
Cu       3.67400694      37.71168947       0.00000000
Cu       3.67400694      39.59727394       1.88558447
Cu       3.67400694      37.71168947       3.77116895
Cu       3.67400694      39.59727394       5.65675342
Cu       3.67400694      37.71168947       7.54233789
Cu       3.67400694      39.59727394       9.42792236
Cu       3.67400694      37.71168947      11.31350684
Cu       3.67400694      39.59727394      13.19909131
Cu       3.67400694      37.71168947      15.08467579
Cu       3.67400694      39.59727394      16.97026026
Cu       3.67400694      37.71168947      18.85584474
Cu       3.67400694      39.59727394      20.74142921
Cu       3.67400694      37.71168947      22.62701368
Cu       3.67400694      39.59727394      24.51259815
Cu       3.67400694      37.71168947      26.39818263
Cu       3.67400694      39.59727394      28.28376710
Cu       3.67400694      37.71168947      30.16935158
Cu       3.67400694      39.59727394      32.05493605
Cu       3.67400694      37.71168947      33.94052052
Cu       3.67400694      39.59727394      35.82610499
Cu       3.67400694      41.48285842       0.00000000
Cu       3.67400694      43.36844289       1.88558447
Cu       3.67400694      41.48285842       3.77116895
Cu       3.67400694      43.36844289       5.65675342
Cu       3.67400694      41.48285842       7.54233789
Cu       3.67400694      43.36844289       9.42792236
Cu       3.67400694      41.48285842      11.31350684
Cu       3.67400694      43.36844289      13.19909131
Cu       3.67400694      41.48285842      15.08467579
Cu       3.67400694      43.36844289      16.97026026
Cu       3.67400694      41.48285842      18.85584474
Cu       3.67400694      43.36844289      20.74142921
Cu       3.67400694      41.48285842      22.62701368
Cu       3.67400694      43.36844289      24.51259815
Cu       3.67400694      41.48285842      26.39818263
Cu       3.67400694      43.36844289      28.28376710
Cu       3.67400694      41.48285842      30.16935158
Cu       3.67400694      43.36844289      32.05493605
Cu       3.67400694      41.48285842      33.94052052
Cu       3.67400694      43.36844289      35.82610499
Cu       3.67400694      45.25402737       0.00000000
Cu       3.67400694      47.13961184       1.88558447
Cu       3.67400694      45.25402737       3.77116895
Cu       3.67400694      47.13961184       5.65675342
Cu       3.67400694      45.25402737       7.54233789
Cu       3.67400694      47.13961184       9.42792236
Cu       3.67400694      45.25402737      11.31350684
Cu       3.67400694      47.13961184      13.19909131
Cu       3.67400694      45.25402737      15.08467579
Cu       3.67400694      47.13961184      16.97026026
Cu       3.67400694      45.25402737      18.85584474
Cu       3.67400694      47.13961184      20.74142921
Cu       3.67400694      45.25402737      22.62701368
Cu       3.67400694      47.13961184      24.51259815
Cu       3.67400694      45.25402737      26.39818263
Cu       3.67400694      47.13961184      28.28376710
Cu       3.67400694      45.25402737      30.16935158
Cu       3.67400694      47.13961184      32.05493605
Cu       3.67400694      45.25402737      33.94052052
Cu       3.67400694      47.13961184      35.82610499
Cu       3.67400694      49.02519631       0.00000000
Cu       3.67400694      50.91078078       1.88558447
Cu       3.67400694      49.02519631       3.77116895
Cu       3.67400694      50.91078078       5.65675342
Cu       3.67400694      49.02519631       7.54233789
Cu       3.67400694      50.91078078       9.42792236
Cu       3.67400694      49.02519631      11.31350684
Cu       3.67400694      50.91078078      13.19909131
Cu       3.67400694      49.02519631      15.08467579
Cu       3.67400694      50.91078078      16.97026026
Cu       3.67400694      49.02519631      18.85584474
Cu       3.67400694      50.91078078      20.74142921
Cu       3.67400694      49.02519631      22.62701368
Cu       3.67400694      50.91078078      24.51259815
Cu       3.67400694      49.02519631      26.39818263
Cu       3.67400694      50.91078078      28.28376710
Cu       3.67400694      49.02519631      30.16935158
Cu       3.67400694      50.91078078      32.05493605
Cu       3.67400694      49.02519631      33.94052052
Cu       3.67400694      50.91078078      35.82610499
Cu       3.67400694      52.79636526       0.00000000
Cu       3.67400694      54.68194973       1.88558447
Cu       3.67400694      52.79636526       3.77116895
Cu       3.67400694      54.68194973       5.65675342
Cu       3.67400694      52.79636526       7.54233789
Cu       3.67400694      54.68194973       9.42792236
Cu       3.67400694      52.79636526      11.31350684
Cu       3.67400694      54.68194973      13.19909131
Cu       3.67400694      52.79636526      15.08467579
Cu       3.67400694      54.68194973      16.97026026
Cu       3.67400694      52.79636526      18.85584474
Cu       3.67400694      54.68194973      20.74142921
Cu       3.67400694      52.79636526      22.62701368
Cu       3.67400694      54.68194973      24.51259815
Cu       3.67400694      52.79636526      26.39818263
Cu       3.67400694      54.68194973      28.28376710
Cu       3.67400694      52.79636526      30.16935158
Cu       3.67400694      54.68194973      32.05493605
Cu       3.67400694      52.79636526      33.94052052
Cu       3.67400694      54.68194973      35.82610499
Cu       3.67400694      56.56753421       0.00000000
Cu       3.67400694      58.45311868       1.88558447
Cu       3.67400694      56.56753421       3.77116895
Cu       3.67400694      58.45311868       5.65675342
Cu       3.67400694      56.56753421       7.54233789
Cu       3.67400694      58.45311868       9.42792236
Cu       3.67400694      56.56753421      11.31350684
Cu       3.67400694      58.45311868      13.19909131
Cu       3.67400694      56.56753421      15.08467579
Cu       3.67400694      58.45311868      16.97026026
Cu       3.67400694      56.56753421      18.85584474
Cu       3.67400694      58.45311868      20.74142921
Cu       3.67400694      56.56753421      22.62701368
Cu       3.67400694      58.45311868      24.51259815
Cu       3.67400694      56.56753421      26.39818263
Cu       3.67400694      58.45311868      28.28376710
Cu       3.67400694      56.56753421      30.16935158
Cu       3.67400694      58.45311868      32.05493605
Cu       3.67400694      56.56753421      33.94052052
Cu       3.67400694      58.45311868      35.82610499
Cu       7.34801388       0.00000000       0.00000000
Cu       7.34801388       1.88558447       1.88558447
Cu       7.34801388       0.00000000       3.77116895
Cu       7.34801388       1.88558447       5.65675342
Cu       7.34801388       0.00000000       7.54233789
Cu       7.34801388       1.88558447       9.42792236
Cu       7.34801388       0.00000000      11.31350684
Cu       7.34801388       1.88558447      13.19909131
Cu       7.34801388       0.00000000      15.08467579
Cu       7.34801388       1.88558447      16.97026026
Cu       7.34801388       0.00000000      18.85584474
Cu       7.34801388       1.88558447      20.74142921
Cu       7.34801388       0.00000000      22.62701368
Cu       7.34801388       1.88558447      24.51259815
Cu       7.34801388       0.00000000      26.39818263
Cu       7.34801388       1.88558447      28.28376710
Cu       7.34801388       0.00000000      30.16935158
Cu       7.34801388       1.88558447      32.05493605
Cu       7.34801388       0.00000000      33.94052052
Cu       7.34801388       1.88558447      35.82610499
Cu       7.34801388       3.77116895       0.00000000
Cu       7.34801388       5.65675342       1.88558447
Cu       7.34801388       3.77116895       3.77116895
Cu       7.34801388       5.65675342       5.65675342
Cu       7.34801388       3.77116895       7.54233789
Cu       7.34801388       5.65675342       9.42792236
Cu       7.34801388       3.77116895      11.31350684
Cu       7.34801388       5.65675342      13.19909131
Cu       7.34801388       3.77116895      15.08467579
Cu       7.34801388       5.65675342      16.97026026
Cu       7.34801388       3.77116895      18.85584474
Cu       7.34801388       5.65675342      20.74142921
Cu       7.34801388       3.77116895      22.62701368
Cu       7.34801388       5.65675342      24.51259815
Cu       7.34801388       3.77116895      26.39818263
Cu       7.34801388       5.65675342      28.28376710
Cu       7.34801388       3.77116895      30.16935158
Cu       7.34801388       5.65675342      32.05493605
Cu       7.34801388       3.77116895      33.94052052
Cu       7.34801388       5.65675342      35.82610499
Cu       7.34801388       7.54233789       0.00000000
Cu       7.34801388       9.42792236       1.88558447
Cu       7.34801388       7.54233789       3.77116895
Cu       7.34801388       9.42792236       5.65675342
Cu       7.34801388       7.54233789       7.54233789
Cu       7.34801388       9.42792236       9.42792236
Cu       7.34801388       7.54233789      11.31350684
Cu       7.34801388       9.42792236      13.19909131
Cu       7.34801388       7.54233789      15.08467579
Cu       7.34801388       9.42792236      16.97026026
Cu       7.34801388       7.54233789      18.85584474
Cu       7.34801388       9.42792236      20.74142921
Cu       7.34801388       7.54233789      22.62701368
Cu       7.34801388       9.42792236      24.51259815
Cu       7.34801388       7.54233789      26.39818263
Cu       7.34801388       9.42792236      28.28376710
Cu       7.34801388       7.54233789      30.16935158
Cu       7.34801388       9.42792236      32.05493605
Cu       7.34801388       7.54233789      33.94052052
Cu       7.34801388       9.42792236      35.82610499
Cu       7.34801388      11.31350684       0.00000000
Cu       7.34801388      13.19909131       1.88558447
Cu       7.34801388      11.31350684       3.77116895
Cu       7.34801388      13.19909131       5.65675342
Cu       7.34801388      11.31350684       7.54233789
Cu       7.34801388      13.19909131       9.42792236
Cu       7.34801388      11.31350684      11.31350684
Cu       7.34801388      13.19909131      13.19909131
Cu       7.34801388      11.31350684      15.08467579
Cu       7.34801388      13.19909131      16.97026026
Cu       7.34801388      11.31350684      18.85584474
Cu       7.34801388      13.19909131      20.74142921
Cu       7.34801388      11.31350684      22.62701368
Cu       7.34801388      13.19909131      24.51259815
Cu       7.34801388      11.31350684      26.39818263
Cu       7.34801388      13.19909131      28.28376710
Cu       7.34801388      11.31350684      30.16935158
Cu       7.34801388      13.19909131      32.05493605
Cu       7.34801388      11.31350684      33.94052052
Cu       7.34801388      13.19909131      35.82610499
Cu       7.34801388      15.08467579       0.00000000
Cu       7.34801388      16.97026026       1.88558447
Cu       7.34801388      15.08467579       3.77116895
Cu       7.34801388      16.97026026       5.65675342
Cu       7.34801388      15.08467579       7.54233789
Cu       7.34801388      16.97026026       9.42792236
Cu       7.34801388      15.08467579      11.31350684
Cu       7.34801388      16.97026026      13.19909131
Cu       7.34801388      15.08467579      15.08467579
Cu       7.34801388      16.97026026      16.97026026
Cu       7.34801388      15.08467579      18.85584474
Cu       7.34801388      16.97026026      20.74142921
Cu       7.34801388      15.08467579      22.62701368
Cu       7.34801388      16.97026026      24.51259815
Cu       7.34801388      15.08467579      26.39818263
Cu       7.34801388      16.97026026      28.28376710
Cu       7.34801388      15.08467579      30.16935158
Cu       7.34801388      16.97026026      32.05493605
Cu       7.34801388      15.08467579      33.94052052
Cu       7.34801388      16.97026026      35.82610499
Cu       7.34801388      18.85584474       0.00000000
Cu       7.34801388      20.74142921       1.88558447
Cu       7.34801388      18.85584474       3.77116895
Cu       7.34801388      20.74142921       5.65675342
Cu       7.34801388      18.85584474       7.54233789
Cu       7.34801388      20.74142921       9.42792236
Cu       7.34801388      18.85584474      11.31350684
Cu       7.34801388      20.74142921      13.19909131
Cu       7.34801388      18.85584474      15.08467579
Cu       7.34801388      20.74142921      16.97026026
Cu       7.34801388      18.85584474      18.85584474
Cu       7.34801388      20.74142921      20.74142921
Cu       7.34801388      18.85584474      22.62701368
Cu       7.34801388      20.74142921      24.51259815
Cu       7.34801388      18.85584474      26.39818263
Cu       7.34801388      20.74142921      28.28376710
Cu       7.34801388      18.85584474      30.16935158
Cu       7.34801388      20.74142921      32.05493605
Cu       7.34801388      18.85584474      33.94052052
Cu       7.34801388      20.74142921      35.82610499
Cu       7.34801388      22.62701368       0.00000000
Cu       7.34801388      24.51259815       1.88558447
Cu       7.34801388      22.62701368       3.77116895
Cu       7.34801388      24.51259815       5.65675342
Cu       7.34801388      22.62701368       7.54233789
Cu       7.34801388      24.51259815       9.42792236
Cu       7.34801388      22.62701368      11.31350684
Cu       7.34801388      24.51259815      13.19909131
Cu       7.34801388      22.62701368      15.08467579
Cu       7.34801388      24.51259815      16.97026026
Cu       7.34801388      22.62701368      18.85584474
Cu       7.34801388      24.51259815      20.74142921
Cu       7.34801388      22.62701368      22.62701368
Cu       7.34801388      24.51259815      24.51259815
Cu       7.34801388      22.62701368      26.39818263
Cu       7.34801388      24.51259815      28.28376710
Cu       7.34801388      22.62701368      30.16935158
Cu       7.34801388      24.51259815      32.05493605
Cu       7.34801388      22.62701368      33.94052052
Cu       7.34801388      24.51259815      35.82610499
Cu       7.34801388      26.39818263       0.00000000
Cu       7.34801388      28.28376710       1.88558447
Cu       7.34801388      26.39818263       3.77116895
Cu       7.34801388      28.28376710       5.65675342
Cu       7.34801388      26.39818263       7.54233789
Cu       7.34801388      28.28376710       9.42792236
Cu       7.34801388      26.39818263      11.31350684
Cu       7.34801388      28.28376710      13.19909131
Cu       7.34801388      26.39818263      15.08467579
Cu       7.34801388      28.28376710      16.97026026
Cu       7.34801388      26.39818263      18.85584474
Cu       7.34801388      28.28376710      20.74142921
Cu       7.34801388      26.39818263      22.62701368
Cu       7.34801388      28.28376710      24.51259815
Cu       7.34801388      26.39818263      26.39818263
Cu       7.34801388      28.28376710      28.28376710
Cu       7.34801388      26.39818263      30.16935158
Cu       7.34801388      28.28376710      32.05493605
Cu       7.34801388      26.39818263      33.94052052
Cu       7.34801388      28.28376710      35.82610499
Cu       7.34801388      30.16935158       0.00000000
Cu       7.34801388      32.05493605       1.88558447
Cu       7.34801388      30.16935158       3.77116895
Cu       7.34801388      32.05493605       5.65675342
Cu       7.34801388      30.16935158       7.54233789
Cu       7.34801388      32.05493605       9.42792236
Cu       7.34801388      30.16935158      11.31350684
Cu       7.34801388      32.05493605      13.19909131
Cu       7.34801388      30.16935158      15.08467579
Cu       7.34801388      32.05493605      16.97026026
Cu       7.34801388      30.16935158      18.85584474
Cu       7.34801388      32.05493605      20.74142921
Cu       7.34801388      30.16935158      22.62701368
Cu       7.34801388      32.05493605      24.51259815
Cu       7.34801388      30.16935158      26.39818263
Cu       7.34801388      32.05493605      28.28376710
Cu       7.34801388      30.16935158      30.16935158
Cu       7.34801388      32.05493605      32.05493605
Cu       7.34801388      30.16935158      33.94052052
Cu       7.34801388      32.05493605      35.82610499
Cu       7.34801388      33.94052052       0.00000000
Cu       7.34801388      35.82610499       1.88558447
Cu       7.34801388      33.94052052       3.77116895
Cu       7.34801388      35.82610499       5.65675342
Cu       7.34801388      33.94052052       7.54233789
Cu       7.34801388      35.82610499       9.42792236
Cu       7.34801388      33.94052052      11.31350684
Cu       7.34801388      35.82610499      13.19909131
Cu       7.34801388      33.94052052      15.08467579
Cu       7.34801388      35.82610499      16.97026026
Cu       7.34801388      33.94052052      18.85584474
Cu       7.34801388      35.82610499      20.74142921
Cu       7.34801388      33.94052052      22.62701368
Cu       7.34801388      35.82610499      24.51259815
Cu       7.34801388      33.94052052      26.39818263
Cu       7.34801388      35.82610499      28.28376710
Cu       7.34801388      33.94052052      30.16935158
Cu       7.34801388      35.82610499      32.05493605
Cu       7.34801388      33.94052052      33.94052052
Cu       7.34801388      35.82610499      35.82610499
Cu       7.34801388      37.71168947       0.00000000
Cu       7.34801388      39.59727394       1.88558447
Cu       7.34801388      37.71168947       3.77116895
Cu       7.34801388      39.59727394       5.65675342
Cu       7.34801388      37.71168947       7.54233789
Cu       7.34801388      39.59727394       9.42792236
Cu       7.34801388      37.71168947      11.31350684
Cu       7.34801388      39.59727394      13.19909131
Cu       7.34801388      37.71168947      15.08467579
Cu       7.34801388      39.59727394      16.97026026
Cu       7.34801388      37.71168947      18.85584474
Cu       7.34801388      39.59727394      20.74142921
Cu       7.34801388      37.71168947      22.62701368
Cu       7.34801388      39.59727394      24.51259815
Cu       7.34801388      37.71168947      26.39818263
Cu       7.34801388      39.59727394      28.28376710
Cu       7.34801388      37.71168947      30.16935158
Cu       7.34801388      39.59727394      32.05493605
Cu       7.34801388      37.71168947      33.94052052
Cu       7.34801388      39.59727394      35.82610499
Cu       7.34801388      41.48285842       0.00000000
Cu       7.34801388      43.36844289       1.88558447
Cu       7.34801388      41.48285842       3.77116895
Cu       7.34801388      43.36844289       5.65675342
Cu       7.34801388      41.48285842       7.54233789
Cu       7.34801388      43.36844289       9.42792236
Cu       7.34801388      41.48285842      11.31350684
Cu       7.34801388      43.36844289      13.19909131
Cu       7.34801388      41.48285842      15.08467579
Cu       7.34801388      43.36844289      16.97026026
Cu       7.34801388      41.48285842      18.85584474
Cu       7.34801388      43.36844289      20.74142921
Cu       7.34801388      41.48285842      22.62701368
Cu       7.34801388      43.36844289      24.51259815
Cu       7.34801388      41.48285842      26.39818263
Cu       7.34801388      43.36844289      28.28376710
Cu       7.34801388      41.48285842      30.16935158
Cu       7.34801388      43.36844289      32.05493605
Cu       7.34801388      41.48285842      33.94052052
Cu       7.34801388      43.36844289      35.82610499
Cu       7.34801388      45.25402737       0.00000000
Cu       7.34801388      47.13961184       1.88558447
Cu       7.34801388      45.25402737       3.77116895
Cu       7.34801388      47.13961184       5.65675342
Cu       7.34801388      45.25402737       7.54233789
Cu       7.34801388      47.13961184       9.42792236
Cu       7.34801388      45.25402737      11.31350684
Cu       7.34801388      47.13961184      13.19909131
Cu       7.34801388      45.25402737      15.08467579
Cu       7.34801388      47.13961184      16.97026026
Cu       7.34801388      45.25402737      18.85584474
Cu       7.34801388      47.13961184      20.74142921
Cu       7.34801388      45.25402737      22.62701368
Cu       7.34801388      47.13961184      24.51259815
Cu       7.34801388      45.25402737      26.39818263
Cu       7.34801388      47.13961184      28.28376710
Cu       7.34801388      45.25402737      30.16935158
Cu       7.34801388      47.13961184      32.05493605
Cu       7.34801388      45.25402737      33.94052052
Cu       7.34801388      47.13961184      35.82610499
Cu       7.34801388      49.02519631       0.00000000
Cu       7.34801388      50.91078078       1.88558447
Cu       7.34801388      49.02519631       3.77116895
Cu       7.34801388      50.91078078       5.65675342
Cu       7.34801388      49.02519631       7.54233789
Cu       7.34801388      50.91078078       9.42792236
Cu       7.34801388      49.02519631      11.31350684
Cu       7.34801388      50.91078078      13.19909131
Cu       7.34801388      49.02519631      15.08467579
Cu       7.34801388      50.91078078      16.97026026
Cu       7.34801388      49.02519631      18.85584474
Cu       7.34801388      50.91078078      20.74142921
Cu       7.34801388      49.02519631      22.62701368
Cu       7.34801388      50.91078078      24.51259815
Cu       7.34801388      49.02519631      26.39818263
Cu       7.34801388      50.91078078      28.28376710
Cu       7.34801388      49.02519631      30.16935158
Cu       7.34801388      50.91078078      32.05493605
Cu       7.34801388      49.02519631      33.94052052
Cu       7.34801388      50.91078078      35.82610499
Cu       7.34801388      52.79636526       0.00000000
Cu       7.34801388      54.68194973       1.88558447
Cu       7.34801388      52.79636526       3.77116895
Cu       7.34801388      54.68194973       5.65675342
Cu       7.34801388      52.79636526       7.54233789
Cu       7.34801388      54.68194973       9.42792236
Cu       7.34801388      52.79636526      11.31350684
Cu       7.34801388      54.68194973      13.19909131
Cu       7.34801388      52.79636526      15.08467579
Cu       7.34801388      54.68194973      16.97026026
Cu       7.34801388      52.79636526      18.85584474
Cu       7.34801388      54.68194973      20.74142921
Cu       7.34801388      52.79636526      22.62701368
Cu       7.34801388      54.68194973      24.51259815
Cu       7.34801388      52.79636526      26.39818263
Cu       7.34801388      54.68194973      28.28376710
Cu       7.34801388      52.79636526      30.16935158
Cu       7.34801388      54.68194973      32.05493605
Cu       7.34801388      52.79636526      33.94052052
Cu       7.34801388      54.68194973      35.82610499
Cu       7.34801388      56.56753421       0.00000000
Cu       7.34801388      58.45311868       1.88558447
Cu       7.34801388      56.56753421       3.77116895
Cu       7.34801388      58.45311868       5.65675342
Cu       7.34801388      56.56753421       7.54233789
Cu       7.34801388      58.45311868       9.42792236
Cu       7.34801388      56.56753421      11.31350684
Cu       7.34801388      58.45311868      13.19909131
Cu       7.34801388      56.56753421      15.08467579
Cu       7.34801388      58.45311868      16.97026026
Cu       7.34801388      56.56753421      18.85584474
Cu       7.34801388      58.45311868      20.74142921
Cu       7.34801388      56.56753421      22.62701368
Cu       7.34801388      58.45311868      24.51259815
Cu       7.34801388      56.56753421      26.39818263
Cu       7.34801388      58.45311868      28.28376710
Cu       7.34801388      56.56753421      30.16935158
Cu       7.34801388      58.45311868      32.05493605
Cu       7.34801388      56.56753421      33.94052052
Cu       7.34801388      58.45311868      35.82610499
Cu      11.02202082       0.00000000       0.00000000
Cu      11.02202082       1.88558447       1.88558447
Cu      11.02202082       0.00000000       3.77116895
Cu      11.02202082       1.88558447       5.65675342
Cu      11.02202082       0.00000000       7.54233789
Cu      11.02202082       1.88558447       9.42792236
Cu      11.02202082       0.00000000      11.31350684
Cu      11.02202082       1.88558447      13.19909131
Cu      11.02202082       0.00000000      15.08467579
Cu      11.02202082       1.88558447      16.97026026
Cu      11.02202082       0.00000000      18.85584474
Cu      11.02202082       1.88558447      20.74142921
Cu      11.02202082       0.00000000      22.62701368
Cu      11.02202082       1.88558447      24.51259815
Cu      11.02202082       0.00000000      26.39818263
Cu      11.02202082       1.88558447      28.28376710
Cu      11.02202082       0.00000000      30.16935158
Cu      11.02202082       1.88558447      32.05493605
Cu      11.02202082       0.00000000      33.94052052
Cu      11.02202082       1.88558447      35.82610499
Cu      11.02202082       3.77116895       0.00000000
Cu      11.02202082       5.65675342       1.88558447
Cu      11.02202082       3.77116895       3.77116895
Cu      11.02202082       5.65675342       5.65675342
Cu      11.02202082       3.77116895       7.54233789
Cu      11.02202082       5.65675342       9.42792236
Cu      11.02202082       3.77116895      11.31350684
Cu      11.02202082       5.65675342      13.19909131
Cu      11.02202082       3.77116895      15.08467579
Cu      11.02202082       5.65675342      16.97026026
Cu      11.02202082       3.77116895      18.85584474
Cu      11.02202082       5.65675342      20.74142921
Cu      11.02202082       3.77116895      22.62701368
Cu      11.02202082       5.65675342      24.51259815
Cu      11.02202082       3.77116895      26.39818263
Cu      11.02202082       5.65675342      28.28376710
Cu      11.02202082       3.77116895      30.16935158
Cu      11.02202082       5.65675342      32.05493605
Cu      11.02202082       3.77116895      33.94052052
Cu      11.02202082       5.65675342      35.82610499
Cu      11.02202082       7.54233789       0.00000000
Cu      11.02202082       9.42792236       1.88558447
Cu      11.02202082       7.54233789       3.77116895
Cu      11.02202082       9.42792236       5.65675342
Cu      11.02202082       7.54233789       7.54233789
Cu      11.02202082       9.42792236       9.42792236
Cu      11.02202082       7.54233789      11.31350684
Cu      11.02202082       9.42792236      13.19909131
Cu      11.02202082       7.54233789      15.08467579
Cu      11.02202082       9.42792236      16.97026026
Cu      11.02202082       7.54233789      18.85584474
Cu      11.02202082       9.42792236      20.74142921
Cu      11.02202082       7.54233789      22.62701368
Cu      11.02202082       9.42792236      24.51259815
Cu      11.02202082       7.54233789      26.39818263
Cu      11.02202082       9.42792236      28.28376710
Cu      11.02202082       7.54233789      30.16935158
Cu      11.02202082       9.42792236      32.05493605
Cu      11.02202082       7.54233789      33.94052052
Cu      11.02202082       9.42792236      35.82610499
Cu      11.02202082      11.31350684       0.00000000
Cu      11.02202082      13.19909131       1.88558447
Cu      11.02202082      11.31350684       3.77116895
Cu      11.02202082      13.19909131       5.65675342
Cu      11.02202082      11.31350684       7.54233789
Cu      11.02202082      13.19909131       9.42792236
Cu      11.02202082      11.31350684      11.31350684
Cu      11.02202082      13.19909131      13.19909131
Cu      11.02202082      11.31350684      15.08467579
Cu      11.02202082      13.19909131      16.97026026
Cu      11.02202082      11.31350684      18.85584474
Cu      11.02202082      13.19909131      20.74142921
Cu      11.02202082      11.31350684      22.62701368
Cu      11.02202082      13.19909131      24.51259815
Cu      11.02202082      11.31350684      26.39818263
Cu      11.02202082      13.19909131      28.28376710
Cu      11.02202082      11.31350684      30.16935158
Cu      11.02202082      13.19909131      32.05493605
Cu      11.02202082      11.31350684      33.94052052
Cu      11.02202082      13.19909131      35.82610499
Cu      11.02202082      15.08467579       0.00000000
Cu      11.02202082      16.97026026       1.88558447
Cu      11.02202082      15.08467579       3.77116895
Cu      11.02202082      16.97026026       5.65675342
Cu      11.02202082      15.08467579       7.54233789
Cu      11.02202082      16.97026026       9.42792236
Cu      11.02202082      15.08467579      11.31350684
Cu      11.02202082      16.97026026      13.19909131
Cu      11.02202082      15.08467579      15.08467579
Cu      11.02202082      16.97026026      16.97026026
Cu      11.02202082      15.08467579      18.85584474
Cu      11.02202082      16.97026026      20.74142921
Cu      11.02202082      15.08467579      22.62701368
Cu      11.02202082      16.97026026      24.51259815
Cu      11.02202082      15.08467579      26.39818263
Cu      11.02202082      16.97026026      28.28376710
Cu      11.02202082      15.08467579      30.16935158
Cu      11.02202082      16.97026026      32.05493605
Cu      11.02202082      15.08467579      33.94052052
Cu      11.02202082      16.97026026      35.82610499
Cu      11.02202082      18.85584474       0.00000000
Cu      11.02202082      20.74142921       1.88558447
Cu      11.02202082      18.85584474       3.77116895
Cu      11.02202082      20.74142921       5.65675342
Cu      11.02202082      18.85584474       7.54233789
Cu      11.02202082      20.74142921       9.42792236
Cu      11.02202082      18.85584474      11.31350684
Cu      11.02202082      20.74142921      13.19909131
Cu      11.02202082      18.85584474      15.08467579
Cu      11.02202082      20.74142921      16.97026026
Cu      11.02202082      18.85584474      18.85584474
Cu      11.02202082      20.74142921      20.74142921
Cu      11.02202082      18.85584474      22.62701368
Cu      11.02202082      20.74142921      24.51259815
Cu      11.02202082      18.85584474      26.39818263
Cu      11.02202082      20.74142921      28.28376710
Cu      11.02202082      18.85584474      30.16935158
Cu      11.02202082      20.74142921      32.05493605
Cu      11.02202082      18.85584474      33.94052052
Cu      11.02202082      20.74142921      35.82610499
Cu      11.02202082      22.62701368       0.00000000
Cu      11.02202082      24.51259815       1.88558447
Cu      11.02202082      22.62701368       3.77116895
Cu      11.02202082      24.51259815       5.65675342
Cu      11.02202082      22.62701368       7.54233789
Cu      11.02202082      24.51259815       9.42792236
Cu      11.02202082      22.62701368      11.31350684
Cu      11.02202082      24.51259815      13.19909131
Cu      11.02202082      22.62701368      15.08467579
Cu      11.02202082      24.51259815      16.97026026
Cu      11.02202082      22.62701368      18.85584474
Cu      11.02202082      24.51259815      20.74142921
Cu      11.02202082      22.62701368      22.62701368
Cu      11.02202082      24.51259815      24.51259815
Cu      11.02202082      22.62701368      26.39818263
Cu      11.02202082      24.51259815      28.28376710
Cu      11.02202082      22.62701368      30.16935158
Cu      11.02202082      24.51259815      32.05493605
Cu      11.02202082      22.62701368      33.94052052
Cu      11.02202082      24.51259815      35.82610499
Cu      11.02202082      26.39818263       0.00000000
Cu      11.02202082      28.28376710       1.88558447
Cu      11.02202082      26.39818263       3.77116895
Cu      11.02202082      28.28376710       5.65675342
Cu      11.02202082      26.39818263       7.54233789
Cu      11.02202082      28.28376710       9.42792236
Cu      11.02202082      26.39818263      11.31350684
Cu      11.02202082      28.28376710      13.19909131
Cu      11.02202082      26.39818263      15.08467579
Cu      11.02202082      28.28376710      16.97026026
Cu      11.02202082      26.39818263      18.85584474
Cu      11.02202082      28.28376710      20.74142921
Cu      11.02202082      26.39818263      22.62701368
Cu      11.02202082      28.28376710      24.51259815
Cu      11.02202082      26.39818263      26.39818263
Cu      11.02202082      28.28376710      28.28376710
Cu      11.02202082      26.39818263      30.16935158
Cu      11.02202082      28.28376710      32.05493605
Cu      11.02202082      26.39818263      33.94052052
Cu      11.02202082      28.28376710      35.82610499
Cu      11.02202082      30.16935158       0.00000000
Cu      11.02202082      32.05493605       1.88558447
Cu      11.02202082      30.16935158       3.77116895
Cu      11.02202082      32.05493605       5.65675342
Cu      11.02202082      30.16935158       7.54233789
Cu      11.02202082      32.05493605       9.42792236
Cu      11.02202082      30.16935158      11.31350684
Cu      11.02202082      32.05493605      13.19909131
Cu      11.02202082      30.16935158      15.08467579
Cu      11.02202082      32.05493605      16.97026026
Cu      11.02202082      30.16935158      18.85584474
Cu      11.02202082      32.05493605      20.74142921
Cu      11.02202082      30.16935158      22.62701368
Cu      11.02202082      32.05493605      24.51259815
Cu      11.02202082      30.16935158      26.39818263
Cu      11.02202082      32.05493605      28.28376710
Cu      11.02202082      30.16935158      30.16935158
Cu      11.02202082      32.05493605      32.05493605
Cu      11.02202082      30.16935158      33.94052052
Cu      11.02202082      32.05493605      35.82610499
Cu      11.02202082      33.94052052       0.00000000
Cu      11.02202082      35.82610499       1.88558447
Cu      11.02202082      33.94052052       3.77116895
Cu      11.02202082      35.82610499       5.65675342
Cu      11.02202082      33.94052052       7.54233789
Cu      11.02202082      35.82610499       9.42792236
Cu      11.02202082      33.94052052      11.31350684
Cu      11.02202082      35.82610499      13.19909131
Cu      11.02202082      33.94052052      15.08467579
Cu      11.02202082      35.82610499      16.97026026
Cu      11.02202082      33.94052052      18.85584474
Cu      11.02202082      35.82610499      20.74142921
Cu      11.02202082      33.94052052      22.62701368
Cu      11.02202082      35.82610499      24.51259815
Cu      11.02202082      33.94052052      26.39818263
Cu      11.02202082      35.82610499      28.28376710
Cu      11.02202082      33.94052052      30.16935158
Cu      11.02202082      35.82610499      32.05493605
Cu      11.02202082      33.94052052      33.94052052
Cu      11.02202082      35.82610499      35.82610499
Cu      11.02202082      37.71168947       0.00000000
Cu      11.02202082      39.59727394       1.88558447
Cu      11.02202082      37.71168947       3.77116895
Cu      11.02202082      39.59727394       5.65675342
Cu      11.02202082      37.71168947       7.54233789
Cu      11.02202082      39.59727394       9.42792236
Cu      11.02202082      37.71168947      11.31350684
Cu      11.02202082      39.59727394      13.19909131
Cu      11.02202082      37.71168947      15.08467579
Cu      11.02202082      39.59727394      16.97026026
Cu      11.02202082      37.71168947      18.85584474
Cu      11.02202082      39.59727394      20.74142921
Cu      11.02202082      37.71168947      22.62701368
Cu      11.02202082      39.59727394      24.51259815
Cu      11.02202082      37.71168947      26.39818263
Cu      11.02202082      39.59727394      28.28376710
Cu      11.02202082      37.71168947      30.16935158
Cu      11.02202082      39.59727394      32.05493605
Cu      11.02202082      37.71168947      33.94052052
Cu      11.02202082      39.59727394      35.82610499
Cu      11.02202082      41.48285842       0.00000000
Cu      11.02202082      43.36844289       1.88558447
Cu      11.02202082      41.48285842       3.77116895
Cu      11.02202082      43.36844289       5.65675342
Cu      11.02202082      41.48285842       7.54233789
Cu      11.02202082      43.36844289       9.42792236
Cu      11.02202082      41.48285842      11.31350684
Cu      11.02202082      43.36844289      13.19909131
Cu      11.02202082      41.48285842      15.08467579
Cu      11.02202082      43.36844289      16.97026026
Cu      11.02202082      41.48285842      18.85584474
Cu      11.02202082      43.36844289      20.74142921
Cu      11.02202082      41.48285842      22.62701368
Cu      11.02202082      43.36844289      24.51259815
Cu      11.02202082      41.48285842      26.39818263
Cu      11.02202082      43.36844289      28.28376710
Cu      11.02202082      41.48285842      30.16935158
Cu      11.02202082      43.36844289      32.05493605
Cu      11.02202082      41.48285842      33.94052052
Cu      11.02202082      43.36844289      35.82610499
Cu      11.02202082      45.25402737       0.00000000
Cu      11.02202082      47.13961184       1.88558447
Cu      11.02202082      45.25402737       3.77116895
Cu      11.02202082      47.13961184       5.65675342
Cu      11.02202082      45.25402737       7.54233789
Cu      11.02202082      47.13961184       9.42792236
Cu      11.02202082      45.25402737      11.31350684
Cu      11.02202082      47.13961184      13.19909131
Cu      11.02202082      45.25402737      15.08467579
Cu      11.02202082      47.13961184      16.97026026
Cu      11.02202082      45.25402737      18.85584474
Cu      11.02202082      47.13961184      20.74142921
Cu      11.02202082      45.25402737      22.62701368
Cu      11.02202082      47.13961184      24.51259815
Cu      11.02202082      45.25402737      26.39818263
Cu      11.02202082      47.13961184      28.28376710
Cu      11.02202082      45.25402737      30.16935158
Cu      11.02202082      47.13961184      32.05493605
Cu      11.02202082      45.25402737      33.94052052
Cu      11.02202082      47.13961184      35.82610499
Cu      11.02202082      49.02519631       0.00000000
Cu      11.02202082      50.91078078       1.88558447
Cu      11.02202082      49.02519631       3.77116895
Cu      11.02202082      50.91078078       5.65675342
Cu      11.02202082      49.02519631       7.54233789
Cu      11.02202082      50.91078078       9.42792236
Cu      11.02202082      49.02519631      11.31350684
Cu      11.02202082      50.91078078      13.19909131
Cu      11.02202082      49.02519631      15.08467579
Cu      11.02202082      50.91078078      16.97026026
Cu      11.02202082      49.02519631      18.85584474
Cu      11.02202082      50.91078078      20.74142921
Cu      11.02202082      49.02519631      22.62701368
Cu      11.02202082      50.91078078      24.51259815
Cu      11.02202082      49.02519631      26.39818263
Cu      11.02202082      50.91078078      28.28376710
Cu      11.02202082      49.02519631      30.16935158
Cu      11.02202082      50.91078078      32.05493605
Cu      11.02202082      49.02519631      33.94052052
Cu      11.02202082      50.91078078      35.82610499
Cu      11.02202082      52.79636526       0.00000000
Cu      11.02202082      54.68194973       1.88558447
Cu      11.02202082      52.79636526       3.77116895
Cu      11.02202082      54.68194973       5.65675342
Cu      11.02202082      52.79636526       7.54233789
Cu      11.02202082      54.68194973       9.42792236
Cu      11.02202082      52.79636526      11.31350684
Cu      11.02202082      54.68194973      13.19909131
Cu      11.02202082      52.79636526      15.08467579
Cu      11.02202082      54.68194973      16.97026026
Cu      11.02202082      52.79636526      18.85584474
Cu      11.02202082      54.68194973      20.74142921
Cu      11.02202082      52.79636526      22.62701368
Cu      11.02202082      54.68194973      24.51259815
Cu      11.02202082      52.79636526      26.39818263
Cu      11.02202082      54.68194973      28.28376710
Cu      11.02202082      52.79636526      30.16935158
Cu      11.02202082      54.68194973      32.05493605
Cu      11.02202082      52.79636526      33.94052052
Cu      11.02202082      54.68194973      35.82610499
Cu      11.02202082      56.56753421       0.00000000
Cu      11.02202082      58.45311868       1.88558447
Cu      11.02202082      56.56753421       3.77116895
Cu      11.02202082      58.45311868       5.65675342
Cu      11.02202082      56.56753421       7.54233789
Cu      11.02202082      58.45311868       9.42792236
Cu      11.02202082      56.56753421      11.31350684
Cu      11.02202082      58.45311868      13.19909131
Cu      11.02202082      56.56753421      15.08467579
Cu      11.02202082      58.45311868      16.97026026
Cu      11.02202082      56.56753421      18.85584474
Cu      11.02202082      58.45311868      20.74142921
Cu      11.02202082      56.56753421      22.62701368
Cu      11.02202082      58.45311868      24.51259815
Cu      11.02202082      56.56753421      26.39818263
Cu      11.02202082      58.45311868      28.28376710
Cu      11.02202082      56.56753421      30.16935158
Cu      11.02202082      58.45311868      32.05493605
Cu      11.02202082      56.56753421      33.94052052
Cu      11.02202082      58.45311868      35.82610499
Cu      14.69602776       0.00000000       0.00000000
Cu      14.69602776       1.88558447       1.88558447
Cu      14.69602776       0.00000000       3.77116895
Cu      14.69602776       1.88558447       5.65675342
Cu      14.69602776       0.00000000       7.54233789
Cu      14.69602776       1.88558447       9.42792236
Cu      14.69602776       0.00000000      11.31350684
Cu      14.69602776       1.88558447      13.19909131
Cu      14.69602776       0.00000000      15.08467579
Cu      14.69602776       1.88558447      16.97026026
Cu      14.69602776       0.00000000      18.85584474
Cu      14.69602776       1.88558447      20.74142921
Cu      14.69602776       0.00000000      22.62701368
Cu      14.69602776       1.88558447      24.51259815
Cu      14.69602776       0.00000000      26.39818263
Cu      14.69602776       1.88558447      28.28376710
Cu      14.69602776       0.00000000      30.16935158
Cu      14.69602776       1.88558447      32.05493605
Cu      14.69602776       0.00000000      33.94052052
Cu      14.69602776       1.88558447      35.82610499
Cu      14.69602776       3.77116895       0.00000000
Cu      14.69602776       5.65675342       1.88558447
Cu      14.69602776       3.77116895       3.77116895
Cu      14.69602776       5.65675342       5.65675342
Cu      14.69602776       3.77116895       7.54233789
Cu      14.69602776       5.65675342       9.42792236
Cu      14.69602776       3.77116895      11.31350684
Cu      14.69602776       5.65675342      13.19909131
Cu      14.69602776       3.77116895      15.08467579
Cu      14.69602776       5.65675342      16.97026026
Cu      14.69602776       3.77116895      18.85584474
Cu      14.69602776       5.65675342      20.74142921
Cu      14.69602776       3.77116895      22.62701368
Cu      14.69602776       5.65675342      24.51259815
Cu      14.69602776       3.77116895      26.39818263
Cu      14.69602776       5.65675342      28.28376710
Cu      14.69602776       3.77116895      30.16935158
Cu      14.69602776       5.65675342      32.05493605
Cu      14.69602776       3.77116895      33.94052052
Cu      14.69602776       5.65675342      35.82610499
Cu      14.69602776       7.54233789       0.00000000
Cu      14.69602776       9.42792236       1.88558447
Cu      14.69602776       7.54233789       3.77116895
Cu      14.69602776       9.42792236       5.65675342
Cu      14.69602776       7.54233789       7.54233789
Cu      14.69602776       9.42792236       9.42792236
Cu      14.69602776       7.54233789      11.31350684
Cu      14.69602776       9.42792236      13.19909131
Cu      14.69602776       7.54233789      15.08467579
Cu      14.69602776       9.42792236      16.97026026
Cu      14.69602776       7.54233789      18.85584474
Cu      14.69602776       9.42792236      20.74142921
Cu      14.69602776       7.54233789      22.62701368
Cu      14.69602776       9.42792236      24.51259815
Cu      14.69602776       7.54233789      26.39818263
Cu      14.69602776       9.42792236      28.28376710
Cu      14.69602776       7.54233789      30.16935158
Cu      14.69602776       9.42792236      32.05493605
Cu      14.69602776       7.54233789      33.94052052
Cu      14.69602776       9.42792236      35.82610499
Cu      14.69602776      11.31350684       0.00000000
Cu      14.69602776      13.19909131       1.88558447
Cu      14.69602776      11.31350684       3.77116895
Cu      14.69602776      13.19909131       5.65675342
Cu      14.69602776      11.31350684       7.54233789
Cu      14.69602776      13.19909131       9.42792236
Cu      14.69602776      11.31350684      11.31350684
Cu      14.69602776      13.19909131      13.19909131
Cu      14.69602776      11.31350684      15.08467579
Cu      14.69602776      13.19909131      16.97026026
Cu      14.69602776      11.31350684      18.85584474
Cu      14.69602776      13.19909131      20.74142921
Cu      14.69602776      11.31350684      22.62701368
Cu      14.69602776      13.19909131      24.51259815
Cu      14.69602776      11.31350684      26.39818263
Cu      14.69602776      13.19909131      28.28376710
Cu      14.69602776      11.31350684      30.16935158
Cu      14.69602776      13.19909131      32.05493605
Cu      14.69602776      11.31350684      33.94052052
Cu      14.69602776      13.19909131      35.82610499
Cu      14.69602776      15.08467579       0.00000000
Cu      14.69602776      16.97026026       1.88558447
Cu      14.69602776      15.08467579       3.77116895
Cu      14.69602776      16.97026026       5.65675342
Cu      14.69602776      15.08467579       7.54233789
Cu      14.69602776      16.97026026       9.42792236
Cu      14.69602776      15.08467579      11.31350684
Cu      14.69602776      16.97026026      13.19909131
Cu      14.69602776      15.08467579      15.08467579
Cu      14.69602776      16.97026026      16.97026026
Cu      14.69602776      15.08467579      18.85584474
Cu      14.69602776      16.97026026      20.74142921
Cu      14.69602776      15.08467579      22.62701368
Cu      14.69602776      16.97026026      24.51259815
Cu      14.69602776      15.08467579      26.39818263
Cu      14.69602776      16.97026026      28.28376710
Cu      14.69602776      15.08467579      30.16935158
Cu      14.69602776      16.97026026      32.05493605
Cu      14.69602776      15.08467579      33.94052052
Cu      14.69602776      16.97026026      35.82610499
Cu      14.69602776      18.85584474       0.00000000
Cu      14.69602776      20.74142921       1.88558447
Cu      14.69602776      18.85584474       3.77116895
Cu      14.69602776      20.74142921       5.65675342
Cu      14.69602776      18.85584474       7.54233789
Cu      14.69602776      20.74142921       9.42792236
Cu      14.69602776      18.85584474      11.31350684
Cu      14.69602776      20.74142921      13.19909131
Cu      14.69602776      18.85584474      15.08467579
Cu      14.69602776      20.74142921      16.97026026
Cu      14.69602776      18.85584474      18.85584474
Cu      14.69602776      20.74142921      20.74142921
Cu      14.69602776      18.85584474      22.62701368
Cu      14.69602776      20.74142921      24.51259815
Cu      14.69602776      18.85584474      26.39818263
Cu      14.69602776      20.74142921      28.28376710
Cu      14.69602776      18.85584474      30.16935158
Cu      14.69602776      20.74142921      32.05493605
Cu      14.69602776      18.85584474      33.94052052
Cu      14.69602776      20.74142921      35.82610499
Cu      14.69602776      22.62701368       0.00000000
Cu      14.69602776      24.51259815       1.88558447
Cu      14.69602776      22.62701368       3.77116895
Cu      14.69602776      24.51259815       5.65675342
Cu      14.69602776      22.62701368       7.54233789
Cu      14.69602776      24.51259815       9.42792236
Cu      14.69602776      22.62701368      11.31350684
Cu      14.69602776      24.51259815      13.19909131
Cu      14.69602776      22.62701368      15.08467579
Cu      14.69602776      24.51259815      16.97026026
Cu      14.69602776      22.62701368      18.85584474
Cu      14.69602776      24.51259815      20.74142921
Cu      14.69602776      22.62701368      22.62701368
Cu      14.69602776      24.51259815      24.51259815
Cu      14.69602776      22.62701368      26.39818263
Cu      14.69602776      24.51259815      28.28376710
Cu      14.69602776      22.62701368      30.16935158
Cu      14.69602776      24.51259815      32.05493605
Cu      14.69602776      22.62701368      33.94052052
Cu      14.69602776      24.51259815      35.82610499
Cu      14.69602776      26.39818263       0.00000000
Cu      14.69602776      28.28376710       1.88558447
Cu      14.69602776      26.39818263       3.77116895
Cu      14.69602776      28.28376710       5.65675342
Cu      14.69602776      26.39818263       7.54233789
Cu      14.69602776      28.28376710       9.42792236
Cu      14.69602776      26.39818263      11.31350684
Cu      14.69602776      28.28376710      13.19909131
Cu      14.69602776      26.39818263      15.08467579
Cu      14.69602776      28.28376710      16.97026026
Cu      14.69602776      26.39818263      18.85584474
Cu      14.69602776      28.28376710      20.74142921
Cu      14.69602776      26.39818263      22.62701368
Cu      14.69602776      28.28376710      24.51259815
Cu      14.69602776      26.39818263      26.39818263
Cu      14.69602776      28.28376710      28.28376710
Cu      14.69602776      26.39818263      30.16935158
Cu      14.69602776      28.28376710      32.05493605
Cu      14.69602776      26.39818263      33.94052052
Cu      14.69602776      28.28376710      35.82610499
Cu      14.69602776      30.16935158       0.00000000
Cu      14.69602776      32.05493605       1.88558447
Cu      14.69602776      30.16935158       3.77116895
Cu      14.69602776      32.05493605       5.65675342
Cu      14.69602776      30.16935158       7.54233789
Cu      14.69602776      32.05493605       9.42792236
Cu      14.69602776      30.16935158      11.31350684
Cu      14.69602776      32.05493605      13.19909131
Cu      14.69602776      30.16935158      15.08467579
Cu      14.69602776      32.05493605      16.97026026
Cu      14.69602776      30.16935158      18.85584474
Cu      14.69602776      32.05493605      20.74142921
Cu      14.69602776      30.16935158      22.62701368
Cu      14.69602776      32.05493605      24.51259815
Cu      14.69602776      30.16935158      26.39818263
Cu      14.69602776      32.05493605      28.28376710
Cu      14.69602776      30.16935158      30.16935158
Cu      14.69602776      32.05493605      32.05493605
Cu      14.69602776      30.16935158      33.94052052
Cu      14.69602776      32.05493605      35.82610499
Cu      14.69602776      33.94052052       0.00000000
Cu      14.69602776      35.82610499       1.88558447
Cu      14.69602776      33.94052052       3.77116895
Cu      14.69602776      35.82610499       5.65675342
Cu      14.69602776      33.94052052       7.54233789
Cu      14.69602776      35.82610499       9.42792236
Cu      14.69602776      33.94052052      11.31350684
Cu      14.69602776      35.82610499      13.19909131
Cu      14.69602776      33.94052052      15.08467579
Cu      14.69602776      35.82610499      16.97026026
Cu      14.69602776      33.94052052      18.85584474
Cu      14.69602776      35.82610499      20.74142921
Cu      14.69602776      33.94052052      22.62701368
Cu      14.69602776      35.82610499      24.51259815
Cu      14.69602776      33.94052052      26.39818263
Cu      14.69602776      35.82610499      28.28376710
Cu      14.69602776      33.94052052      30.16935158
Cu      14.69602776      35.82610499      32.05493605
Cu      14.69602776      33.94052052      33.94052052
Cu      14.69602776      35.82610499      35.82610499
Cu      14.69602776      37.71168947       0.00000000
Cu      14.69602776      39.59727394       1.88558447
Cu      14.69602776      37.71168947       3.77116895
Cu      14.69602776      39.59727394       5.65675342
Cu      14.69602776      37.71168947       7.54233789
Cu      14.69602776      39.59727394       9.42792236
Cu      14.69602776      37.71168947      11.31350684
Cu      14.69602776      39.59727394      13.19909131
Cu      14.69602776      37.71168947      15.08467579
Cu      14.69602776      39.59727394      16.97026026
Cu      14.69602776      37.71168947      18.85584474
Cu      14.69602776      39.59727394      20.74142921
Cu      14.69602776      37.71168947      22.62701368
Cu      14.69602776      39.59727394      24.51259815
Cu      14.69602776      37.71168947      26.39818263
Cu      14.69602776      39.59727394      28.28376710
Cu      14.69602776      37.71168947      30.16935158
Cu      14.69602776      39.59727394      32.05493605
Cu      14.69602776      37.71168947      33.94052052
Cu      14.69602776      39.59727394      35.82610499
Cu      14.69602776      41.48285842       0.00000000
Cu      14.69602776      43.36844289       1.88558447
Cu      14.69602776      41.48285842       3.77116895
Cu      14.69602776      43.36844289       5.65675342
Cu      14.69602776      41.48285842       7.54233789
Cu      14.69602776      43.36844289       9.42792236
Cu      14.69602776      41.48285842      11.31350684
Cu      14.69602776      43.36844289      13.19909131
Cu      14.69602776      41.48285842      15.08467579
Cu      14.69602776      43.36844289      16.97026026
Cu      14.69602776      41.48285842      18.85584474
Cu      14.69602776      43.36844289      20.74142921
Cu      14.69602776      41.48285842      22.62701368
Cu      14.69602776      43.36844289      24.51259815
Cu      14.69602776      41.48285842      26.39818263
Cu      14.69602776      43.36844289      28.28376710
Cu      14.69602776      41.48285842      30.16935158
Cu      14.69602776      43.36844289      32.05493605
Cu      14.69602776      41.48285842      33.94052052
Cu      14.69602776      43.36844289      35.82610499
Cu      14.69602776      45.25402737       0.00000000
Cu      14.69602776      47.13961184       1.88558447
Cu      14.69602776      45.25402737       3.77116895
Cu      14.69602776      47.13961184       5.65675342
Cu      14.69602776      45.25402737       7.54233789
Cu      14.69602776      47.13961184       9.42792236
Cu      14.69602776      45.25402737      11.31350684
Cu      14.69602776      47.13961184      13.19909131
Cu      14.69602776      45.25402737      15.08467579
Cu      14.69602776      47.13961184      16.97026026
Cu      14.69602776      45.25402737      18.85584474
Cu      14.69602776      47.13961184      20.74142921
Cu      14.69602776      45.25402737      22.62701368
Cu      14.69602776      47.13961184      24.51259815
Cu      14.69602776      45.25402737      26.39818263
Cu      14.69602776      47.13961184      28.28376710
Cu      14.69602776      45.25402737      30.16935158
Cu      14.69602776      47.13961184      32.05493605
Cu      14.69602776      45.25402737      33.94052052
Cu      14.69602776      47.13961184      35.82610499
Cu      14.69602776      49.02519631       0.00000000
Cu      14.69602776      50.91078078       1.88558447
Cu      14.69602776      49.02519631       3.77116895
Cu      14.69602776      50.91078078       5.65675342
Cu      14.69602776      49.02519631       7.54233789
Cu      14.69602776      50.91078078       9.42792236
Cu      14.69602776      49.02519631      11.31350684
Cu      14.69602776      50.91078078      13.19909131
Cu      14.69602776      49.02519631      15.08467579
Cu      14.69602776      50.91078078      16.97026026
Cu      14.69602776      49.02519631      18.85584474
Cu      14.69602776      50.91078078      20.74142921
Cu      14.69602776      49.02519631      22.62701368
Cu      14.69602776      50.91078078      24.51259815
Cu      14.69602776      49.02519631      26.39818263
Cu      14.69602776      50.91078078      28.28376710
Cu      14.69602776      49.02519631      30.16935158
Cu      14.69602776      50.91078078      32.05493605
Cu      14.69602776      49.02519631      33.94052052
Cu      14.69602776      50.91078078      35.82610499
Cu      14.69602776      52.79636526       0.00000000
Cu      14.69602776      54.68194973       1.88558447
Cu      14.69602776      52.79636526       3.77116895
Cu      14.69602776      54.68194973       5.65675342
Cu      14.69602776      52.79636526       7.54233789
Cu      14.69602776      54.68194973       9.42792236
Cu      14.69602776      52.79636526      11.31350684
Cu      14.69602776      54.68194973      13.19909131
Cu      14.69602776      52.79636526      15.08467579
Cu      14.69602776      54.68194973      16.97026026
Cu      14.69602776      52.79636526      18.85584474
Cu      14.69602776      54.68194973      20.74142921
Cu      14.69602776      52.79636526      22.62701368
Cu      14.69602776      54.68194973      24.51259815
Cu      14.69602776      52.79636526      26.39818263
Cu      14.69602776      54.68194973      28.28376710
Cu      14.69602776      52.79636526      30.16935158
Cu      14.69602776      54.68194973      32.05493605
Cu      14.69602776      52.79636526      33.94052052
Cu      14.69602776      54.68194973      35.82610499
Cu      14.69602776      56.56753421       0.00000000
Cu      14.69602776      58.45311868       1.88558447
Cu      14.69602776      56.56753421       3.77116895
Cu      14.69602776      58.45311868       5.65675342
Cu      14.69602776      56.56753421       7.54233789
Cu      14.69602776      58.45311868       9.42792236
Cu      14.69602776      56.56753421      11.31350684
Cu      14.69602776      58.45311868      13.19909131
Cu      14.69602776      56.56753421      15.08467579
Cu      14.69602776      58.45311868      16.97026026
Cu      14.69602776      56.56753421      18.85584474
Cu      14.69602776      58.45311868      20.74142921
Cu      14.69602776      56.56753421      22.62701368
Cu      14.69602776      58.45311868      24.51259815
Cu      14.69602776      56.56753421      26.39818263
Cu      14.69602776      58.45311868      28.28376710
Cu      14.69602776      56.56753421      30.16935158
Cu      14.69602776      58.45311868      32.05493605
Cu      14.69602776      56.56753421      33.94052052
Cu      14.69602776      58.45311868      35.82610499
Cu      18.37003469       0.00000000       0.00000000
Cu      18.37003469       1.88558447       1.88558447
Cu      18.37003469       0.00000000       3.77116895
Cu      18.37003469       1.88558447       5.65675342
Cu      18.37003469       0.00000000       7.54233789
Cu      18.37003469       1.88558447       9.42792236
Cu      18.37003469       0.00000000      11.31350684
Cu      18.37003469       1.88558447      13.19909131
Cu      18.37003469       0.00000000      15.08467579
Cu      18.37003469       1.88558447      16.97026026
Cu      18.37003469       0.00000000      18.85584474
Cu      18.37003469       1.88558447      20.74142921
Cu      18.37003469       0.00000000      22.62701368
Cu      18.37003469       1.88558447      24.51259815
Cu      18.37003469       0.00000000      26.39818263
Cu      18.37003469       1.88558447      28.28376710
Cu      18.37003469       0.00000000      30.16935158
Cu      18.37003469       1.88558447      32.05493605
Cu      18.37003469       0.00000000      33.94052052
Cu      18.37003469       1.88558447      35.82610499
Cu      18.37003469       3.77116895       0.00000000
Cu      18.37003469       5.65675342       1.88558447
Cu      18.37003469       3.77116895       3.77116895
Cu      18.37003469       5.65675342       5.65675342
Cu      18.37003469       3.77116895       7.54233789
Cu      18.37003469       5.65675342       9.42792236
Cu      18.37003469       3.77116895      11.31350684
Cu      18.37003469       5.65675342      13.19909131
Cu      18.37003469       3.77116895      15.08467579
Cu      18.37003469       5.65675342      16.97026026
Cu      18.37003469       3.77116895      18.85584474
Cu      18.37003469       5.65675342      20.74142921
Cu      18.37003469       3.77116895      22.62701368
Cu      18.37003469       5.65675342      24.51259815
Cu      18.37003469       3.77116895      26.39818263
Cu      18.37003469       5.65675342      28.28376710
Cu      18.37003469       3.77116895      30.16935158
Cu      18.37003469       5.65675342      32.05493605
Cu      18.37003469       3.77116895      33.94052052
Cu      18.37003469       5.65675342      35.82610499
Cu      18.37003469       7.54233789       0.00000000
Cu      18.37003469       9.42792236       1.88558447
Cu      18.37003469       7.54233789       3.77116895
Cu      18.37003469       9.42792236       5.65675342
Cu      18.37003469       7.54233789       7.54233789
Cu      18.37003469       9.42792236       9.42792236
Cu      18.37003469       7.54233789      11.31350684
Cu      18.37003469       9.42792236      13.19909131
Cu      18.37003469       7.54233789      15.08467579
Cu      18.37003469       9.42792236      16.97026026
Cu      18.37003469       7.54233789      18.85584474
Cu      18.37003469       9.42792236      20.74142921
Cu      18.37003469       7.54233789      22.62701368
Cu      18.37003469       9.42792236      24.51259815
Cu      18.37003469       7.54233789      26.39818263
Cu      18.37003469       9.42792236      28.28376710
Cu      18.37003469       7.54233789      30.16935158
Cu      18.37003469       9.42792236      32.05493605
Cu      18.37003469       7.54233789      33.94052052
Cu      18.37003469       9.42792236      35.82610499
Cu      18.37003469      11.31350684       0.00000000
Cu      18.37003469      13.19909131       1.88558447
Cu      18.37003469      11.31350684       3.77116895
Cu      18.37003469      13.19909131       5.65675342
Cu      18.37003469      11.31350684       7.54233789
Cu      18.37003469      13.19909131       9.42792236
Cu      18.37003469      11.31350684      11.31350684
Cu      18.37003469      13.19909131      13.19909131
Cu      18.37003469      11.31350684      15.08467579
Cu      18.37003469      13.19909131      16.97026026
Cu      18.37003469      11.31350684      18.85584474
Cu      18.37003469      13.19909131      20.74142921
Cu      18.37003469      11.31350684      22.62701368
Cu      18.37003469      13.19909131      24.51259815
Cu      18.37003469      11.31350684      26.39818263
Cu      18.37003469      13.19909131      28.28376710
Cu      18.37003469      11.31350684      30.16935158
Cu      18.37003469      13.19909131      32.05493605
Cu      18.37003469      11.31350684      33.94052052
Cu      18.37003469      13.19909131      35.82610499
Cu      18.37003469      15.08467579       0.00000000
Cu      18.37003469      16.97026026       1.88558447
Cu      18.37003469      15.08467579       3.77116895
Cu      18.37003469      16.97026026       5.65675342
Cu      18.37003469      15.08467579       7.54233789
Cu      18.37003469      16.97026026       9.42792236
Cu      18.37003469      15.08467579      11.31350684
Cu      18.37003469      16.97026026      13.19909131
Cu      18.37003469      15.08467579      15.08467579
Cu      18.37003469      16.97026026      16.97026026
Cu      18.37003469      15.08467579      18.85584474
Cu      18.37003469      16.97026026      20.74142921
Cu      18.37003469      15.08467579      22.62701368
Cu      18.37003469      16.97026026      24.51259815
Cu      18.37003469      15.08467579      26.39818263
Cu      18.37003469      16.97026026      28.28376710
Cu      18.37003469      15.08467579      30.16935158
Cu      18.37003469      16.97026026      32.05493605
Cu      18.37003469      15.08467579      33.94052052
Cu      18.37003469      16.97026026      35.82610499
Cu      18.37003469      18.85584474       0.00000000
Cu      18.37003469      20.74142921       1.88558447
Cu      18.37003469      18.85584474       3.77116895
Cu      18.37003469      20.74142921       5.65675342
Cu      18.37003469      18.85584474       7.54233789
Cu      18.37003469      20.74142921       9.42792236
Cu      18.37003469      18.85584474      11.31350684
Cu      18.37003469      20.74142921      13.19909131
Cu      18.37003469      18.85584474      15.08467579
Cu      18.37003469      20.74142921      16.97026026
Cu      18.37003469      18.85584474      18.85584474
Cu      18.37003469      20.74142921      20.74142921
Cu      18.37003469      18.85584474      22.62701368
Cu      18.37003469      20.74142921      24.51259815
Cu      18.37003469      18.85584474      26.39818263
Cu      18.37003469      20.74142921      28.28376710
Cu      18.37003469      18.85584474      30.16935158
Cu      18.37003469      20.74142921      32.05493605
Cu      18.37003469      18.85584474      33.94052052
Cu      18.37003469      20.74142921      35.82610499
Cu      18.37003469      22.62701368       0.00000000
Cu      18.37003469      24.51259815       1.88558447
Cu      18.37003469      22.62701368       3.77116895
Cu      18.37003469      24.51259815       5.65675342
Cu      18.37003469      22.62701368       7.54233789
Cu      18.37003469      24.51259815       9.42792236
Cu      18.37003469      22.62701368      11.31350684
Cu      18.37003469      24.51259815      13.19909131
Cu      18.37003469      22.62701368      15.08467579
Cu      18.37003469      24.51259815      16.97026026
Cu      18.37003469      22.62701368      18.85584474
Cu      18.37003469      24.51259815      20.74142921
Cu      18.37003469      22.62701368      22.62701368
Cu      18.37003469      24.51259815      24.51259815
Cu      18.37003469      22.62701368      26.39818263
Cu      18.37003469      24.51259815      28.28376710
Cu      18.37003469      22.62701368      30.16935158
Cu      18.37003469      24.51259815      32.05493605
Cu      18.37003469      22.62701368      33.94052052
Cu      18.37003469      24.51259815      35.82610499
Cu      18.37003469      26.39818263       0.00000000
Cu      18.37003469      28.28376710       1.88558447
Cu      18.37003469      26.39818263       3.77116895
Cu      18.37003469      28.28376710       5.65675342
Cu      18.37003469      26.39818263       7.54233789
Cu      18.37003469      28.28376710       9.42792236
Cu      18.37003469      26.39818263      11.31350684
Cu      18.37003469      28.28376710      13.19909131
Cu      18.37003469      26.39818263      15.08467579
Cu      18.37003469      28.28376710      16.97026026
Cu      18.37003469      26.39818263      18.85584474
Cu      18.37003469      28.28376710      20.74142921
Cu      18.37003469      26.39818263      22.62701368
Cu      18.37003469      28.28376710      24.51259815
Cu      18.37003469      26.39818263      26.39818263
Cu      18.37003469      28.28376710      28.28376710
Cu      18.37003469      26.39818263      30.16935158
Cu      18.37003469      28.28376710      32.05493605
Cu      18.37003469      26.39818263      33.94052052
Cu      18.37003469      28.28376710      35.82610499
Cu      18.37003469      30.16935158       0.00000000
Cu      18.37003469      32.05493605       1.88558447
Cu      18.37003469      30.16935158       3.77116895
Cu      18.37003469      32.05493605       5.65675342
Cu      18.37003469      30.16935158       7.54233789
Cu      18.37003469      32.05493605       9.42792236
Cu      18.37003469      30.16935158      11.31350684
Cu      18.37003469      32.05493605      13.19909131
Cu      18.37003469      30.16935158      15.08467579
Cu      18.37003469      32.05493605      16.97026026
Cu      18.37003469      30.16935158      18.85584474
Cu      18.37003469      32.05493605      20.74142921
Cu      18.37003469      30.16935158      22.62701368
Cu      18.37003469      32.05493605      24.51259815
Cu      18.37003469      30.16935158      26.39818263
Cu      18.37003469      32.05493605      28.28376710
Cu      18.37003469      30.16935158      30.16935158
Cu      18.37003469      32.05493605      32.05493605
Cu      18.37003469      30.16935158      33.94052052
Cu      18.37003469      32.05493605      35.82610499
Cu      18.37003469      33.94052052       0.00000000
Cu      18.37003469      35.82610499       1.88558447
Cu      18.37003469      33.94052052       3.77116895
Cu      18.37003469      35.82610499       5.65675342
Cu      18.37003469      33.94052052       7.54233789
Cu      18.37003469      35.82610499       9.42792236
Cu      18.37003469      33.94052052      11.31350684
Cu      18.37003469      35.82610499      13.19909131
Cu      18.37003469      33.94052052      15.08467579
Cu      18.37003469      35.82610499      16.97026026
Cu      18.37003469      33.94052052      18.85584474
Cu      18.37003469      35.82610499      20.74142921
Cu      18.37003469      33.94052052      22.62701368
Cu      18.37003469      35.82610499      24.51259815
Cu      18.37003469      33.94052052      26.39818263
Cu      18.37003469      35.82610499      28.28376710
Cu      18.37003469      33.94052052      30.16935158
Cu      18.37003469      35.82610499      32.05493605
Cu      18.37003469      33.94052052      33.94052052
Cu      18.37003469      35.82610499      35.82610499
Cu      18.37003469      37.71168947       0.00000000
Cu      18.37003469      39.59727394       1.88558447
Cu      18.37003469      37.71168947       3.77116895
Cu      18.37003469      39.59727394       5.65675342
Cu      18.37003469      37.71168947       7.54233789
Cu      18.37003469      39.59727394       9.42792236
Cu      18.37003469      37.71168947      11.31350684
Cu      18.37003469      39.59727394      13.19909131
Cu      18.37003469      37.71168947      15.08467579
Cu      18.37003469      39.59727394      16.97026026
Cu      18.37003469      37.71168947      18.85584474
Cu      18.37003469      39.59727394      20.74142921
Cu      18.37003469      37.71168947      22.62701368
Cu      18.37003469      39.59727394      24.51259815
Cu      18.37003469      37.71168947      26.39818263
Cu      18.37003469      39.59727394      28.28376710
Cu      18.37003469      37.71168947      30.16935158
Cu      18.37003469      39.59727394      32.05493605
Cu      18.37003469      37.71168947      33.94052052
Cu      18.37003469      39.59727394      35.82610499
Cu      18.37003469      41.48285842       0.00000000
Cu      18.37003469      43.36844289       1.88558447
Cu      18.37003469      41.48285842       3.77116895
Cu      18.37003469      43.36844289       5.65675342
Cu      18.37003469      41.48285842       7.54233789
Cu      18.37003469      43.36844289       9.42792236
Cu      18.37003469      41.48285842      11.31350684
Cu      18.37003469      43.36844289      13.19909131
Cu      18.37003469      41.48285842      15.08467579
Cu      18.37003469      43.36844289      16.97026026
Cu      18.37003469      41.48285842      18.85584474
Cu      18.37003469      43.36844289      20.74142921
Cu      18.37003469      41.48285842      22.62701368
Cu      18.37003469      43.36844289      24.51259815
Cu      18.37003469      41.48285842      26.39818263
Cu      18.37003469      43.36844289      28.28376710
Cu      18.37003469      41.48285842      30.16935158
Cu      18.37003469      43.36844289      32.05493605
Cu      18.37003469      41.48285842      33.94052052
Cu      18.37003469      43.36844289      35.82610499
Cu      18.37003469      45.25402737       0.00000000
Cu      18.37003469      47.13961184       1.88558447
Cu      18.37003469      45.25402737       3.77116895
Cu      18.37003469      47.13961184       5.65675342
Cu      18.37003469      45.25402737       7.54233789
Cu      18.37003469      47.13961184       9.42792236
Cu      18.37003469      45.25402737      11.31350684
Cu      18.37003469      47.13961184      13.19909131
Cu      18.37003469      45.25402737      15.08467579
Cu      18.37003469      47.13961184      16.97026026
Cu      18.37003469      45.25402737      18.85584474
Cu      18.37003469      47.13961184      20.74142921
Cu      18.37003469      45.25402737      22.62701368
Cu      18.37003469      47.13961184      24.51259815
Cu      18.37003469      45.25402737      26.39818263
Cu      18.37003469      47.13961184      28.28376710
Cu      18.37003469      45.25402737      30.16935158
Cu      18.37003469      47.13961184      32.05493605
Cu      18.37003469      45.25402737      33.94052052
Cu      18.37003469      47.13961184      35.82610499
Cu      18.37003469      49.02519631       0.00000000
Cu      18.37003469      50.91078078       1.88558447
Cu      18.37003469      49.02519631       3.77116895
Cu      18.37003469      50.91078078       5.65675342
Cu      18.37003469      49.02519631       7.54233789
Cu      18.37003469      50.91078078       9.42792236
Cu      18.37003469      49.02519631      11.31350684
Cu      18.37003469      50.91078078      13.19909131
Cu      18.37003469      49.02519631      15.08467579
Cu      18.37003469      50.91078078      16.97026026
Cu      18.37003469      49.02519631      18.85584474
Cu      18.37003469      50.91078078      20.74142921
Cu      18.37003469      49.02519631      22.62701368
Cu      18.37003469      50.91078078      24.51259815
Cu      18.37003469      49.02519631      26.39818263
Cu      18.37003469      50.91078078      28.28376710
Cu      18.37003469      49.02519631      30.16935158
Cu      18.37003469      50.91078078      32.05493605
Cu      18.37003469      49.02519631      33.94052052
Cu      18.37003469      50.91078078      35.82610499
Cu      18.37003469      52.79636526       0.00000000
Cu      18.37003469      54.68194973       1.88558447
Cu      18.37003469      52.79636526       3.77116895
Cu      18.37003469      54.68194973       5.65675342
Cu      18.37003469      52.79636526       7.54233789
Cu      18.37003469      54.68194973       9.42792236
Cu      18.37003469      52.79636526      11.31350684
Cu      18.37003469      54.68194973      13.19909131
Cu      18.37003469      52.79636526      15.08467579
Cu      18.37003469      54.68194973      16.97026026
Cu      18.37003469      52.79636526      18.85584474
Cu      18.37003469      54.68194973      20.74142921
Cu      18.37003469      52.79636526      22.62701368
Cu      18.37003469      54.68194973      24.51259815
Cu      18.37003469      52.79636526      26.39818263
Cu      18.37003469      54.68194973      28.28376710
Cu      18.37003469      52.79636526      30.16935158
Cu      18.37003469      54.68194973      32.05493605
Cu      18.37003469      52.79636526      33.94052052
Cu      18.37003469      54.68194973      35.82610499
Cu      18.37003469      56.56753421       0.00000000
Cu      18.37003469      58.45311868       1.88558447
Cu      18.37003469      56.56753421       3.77116895
Cu      18.37003469      58.45311868       5.65675342
Cu      18.37003469      56.56753421       7.54233789
Cu      18.37003469      58.45311868       9.42792236
Cu      18.37003469      56.56753421      11.31350684
Cu      18.37003469      58.45311868      13.19909131
Cu      18.37003469      56.56753421      15.08467579
Cu      18.37003469      58.45311868      16.97026026
Cu      18.37003469      56.56753421      18.85584474
Cu      18.37003469      58.45311868      20.74142921
Cu      18.37003469      56.56753421      22.62701368
Cu      18.37003469      58.45311868      24.51259815
Cu      18.37003469      56.56753421      26.39818263
Cu      18.37003469      58.45311868      28.28376710
Cu      18.37003469      56.56753421      30.16935158
Cu      18.37003469      58.45311868      32.05493605
Cu      18.37003469      56.56753421      33.94052052
Cu      18.37003469      58.45311868      35.82610499
Cu      22.04404163       0.00000000       0.00000000
Cu      22.04404163       1.88558447       1.88558447
Cu      22.04404163       0.00000000       3.77116895
Cu      22.04404163       1.88558447       5.65675342
Cu      22.04404163       0.00000000       7.54233789
Cu      22.04404163       1.88558447       9.42792236
Cu      22.04404163       0.00000000      11.31350684
Cu      22.04404163       1.88558447      13.19909131
Cu      22.04404163       0.00000000      15.08467579
Cu      22.04404163       1.88558447      16.97026026
Cu      22.04404163       0.00000000      18.85584474
Cu      22.04404163       1.88558447      20.74142921
Cu      22.04404163       0.00000000      22.62701368
Cu      22.04404163       1.88558447      24.51259815
Cu      22.04404163       0.00000000      26.39818263
Cu      22.04404163       1.88558447      28.28376710
Cu      22.04404163       0.00000000      30.16935158
Cu      22.04404163       1.88558447      32.05493605
Cu      22.04404163       0.00000000      33.94052052
Cu      22.04404163       1.88558447      35.82610499
Cu      22.04404163       3.77116895       0.00000000
Cu      22.04404163       5.65675342       1.88558447
Cu      22.04404163       3.77116895       3.77116895
Cu      22.04404163       5.65675342       5.65675342
Cu      22.04404163       3.77116895       7.54233789
Cu      22.04404163       5.65675342       9.42792236
Cu      22.04404163       3.77116895      11.31350684
Cu      22.04404163       5.65675342      13.19909131
Cu      22.04404163       3.77116895      15.08467579
Cu      22.04404163       5.65675342      16.97026026
Cu      22.04404163       3.77116895      18.85584474
Cu      22.04404163       5.65675342      20.74142921
Cu      22.04404163       3.77116895      22.62701368
Cu      22.04404163       5.65675342      24.51259815
Cu      22.04404163       3.77116895      26.39818263
Cu      22.04404163       5.65675342      28.28376710
Cu      22.04404163       3.77116895      30.16935158
Cu      22.04404163       5.65675342      32.05493605
Cu      22.04404163       3.77116895      33.94052052
Cu      22.04404163       5.65675342      35.82610499
Cu      22.04404163       7.54233789       0.00000000
Cu      22.04404163       9.42792236       1.88558447
Cu      22.04404163       7.54233789       3.77116895
Cu      22.04404163       9.42792236       5.65675342
Cu      22.04404163       7.54233789       7.54233789
Cu      22.04404163       9.42792236       9.42792236
Cu      22.04404163       7.54233789      11.31350684
Cu      22.04404163       9.42792236      13.19909131
Cu      22.04404163       7.54233789      15.08467579
Cu      22.04404163       9.42792236      16.97026026
Cu      22.04404163       7.54233789      18.85584474
Cu      22.04404163       9.42792236      20.74142921
Cu      22.04404163       7.54233789      22.62701368
Cu      22.04404163       9.42792236      24.51259815
Cu      22.04404163       7.54233789      26.39818263
Cu      22.04404163       9.42792236      28.28376710
Cu      22.04404163       7.54233789      30.16935158
Cu      22.04404163       9.42792236      32.05493605
Cu      22.04404163       7.54233789      33.94052052
Cu      22.04404163       9.42792236      35.82610499
Cu      22.04404163      11.31350684       0.00000000
Cu      22.04404163      13.19909131       1.88558447
Cu      22.04404163      11.31350684       3.77116895
Cu      22.04404163      13.19909131       5.65675342
Cu      22.04404163      11.31350684       7.54233789
Cu      22.04404163      13.19909131       9.42792236
Cu      22.04404163      11.31350684      11.31350684
Cu      22.04404163      13.19909131      13.19909131
Cu      22.04404163      11.31350684      15.08467579
Cu      22.04404163      13.19909131      16.97026026
Cu      22.04404163      11.31350684      18.85584474
Cu      22.04404163      13.19909131      20.74142921
Cu      22.04404163      11.31350684      22.62701368
Cu      22.04404163      13.19909131      24.51259815
Cu      22.04404163      11.31350684      26.39818263
Cu      22.04404163      13.19909131      28.28376710
Cu      22.04404163      11.31350684      30.16935158
Cu      22.04404163      13.19909131      32.05493605
Cu      22.04404163      11.31350684      33.94052052
Cu      22.04404163      13.19909131      35.82610499
Cu      22.04404163      15.08467579       0.00000000
Cu      22.04404163      16.97026026       1.88558447
Cu      22.04404163      15.08467579       3.77116895
Cu      22.04404163      16.97026026       5.65675342
Cu      22.04404163      15.08467579       7.54233789
Cu      22.04404163      16.97026026       9.42792236
Cu      22.04404163      15.08467579      11.31350684
Cu      22.04404163      16.97026026      13.19909131
Cu      22.04404163      15.08467579      15.08467579
Cu      22.04404163      16.97026026      16.97026026
Cu      22.04404163      15.08467579      18.85584474
Cu      22.04404163      16.97026026      20.74142921
Cu      22.04404163      15.08467579      22.62701368
Cu      22.04404163      16.97026026      24.51259815
Cu      22.04404163      15.08467579      26.39818263
Cu      22.04404163      16.97026026      28.28376710
Cu      22.04404163      15.08467579      30.16935158
Cu      22.04404163      16.97026026      32.05493605
Cu      22.04404163      15.08467579      33.94052052
Cu      22.04404163      16.97026026      35.82610499
Cu      22.04404163      18.85584474       0.00000000
Cu      22.04404163      20.74142921       1.88558447
Cu      22.04404163      18.85584474       3.77116895
Cu      22.04404163      20.74142921       5.65675342
Cu      22.04404163      18.85584474       7.54233789
Cu      22.04404163      20.74142921       9.42792236
Cu      22.04404163      18.85584474      11.31350684
Cu      22.04404163      20.74142921      13.19909131
Cu      22.04404163      18.85584474      15.08467579
Cu      22.04404163      20.74142921      16.97026026
Cu      22.04404163      18.85584474      18.85584474
Cu      22.04404163      20.74142921      20.74142921
Cu      22.04404163      18.85584474      22.62701368
Cu      22.04404163      20.74142921      24.51259815
Cu      22.04404163      18.85584474      26.39818263
Cu      22.04404163      20.74142921      28.28376710
Cu      22.04404163      18.85584474      30.16935158
Cu      22.04404163      20.74142921      32.05493605
Cu      22.04404163      18.85584474      33.94052052
Cu      22.04404163      20.74142921      35.82610499
Cu      22.04404163      22.62701368       0.00000000
Cu      22.04404163      24.51259815       1.88558447
Cu      22.04404163      22.62701368       3.77116895
Cu      22.04404163      24.51259815       5.65675342
Cu      22.04404163      22.62701368       7.54233789
Cu      22.04404163      24.51259815       9.42792236
Cu      22.04404163      22.62701368      11.31350684
Cu      22.04404163      24.51259815      13.19909131
Cu      22.04404163      22.62701368      15.08467579
Cu      22.04404163      24.51259815      16.97026026
Cu      22.04404163      22.62701368      18.85584474
Cu      22.04404163      24.51259815      20.74142921
Cu      22.04404163      22.62701368      22.62701368
Cu      22.04404163      24.51259815      24.51259815
Cu      22.04404163      22.62701368      26.39818263
Cu      22.04404163      24.51259815      28.28376710
Cu      22.04404163      22.62701368      30.16935158
Cu      22.04404163      24.51259815      32.05493605
Cu      22.04404163      22.62701368      33.94052052
Cu      22.04404163      24.51259815      35.82610499
Cu      22.04404163      26.39818263       0.00000000
Cu      22.04404163      28.28376710       1.88558447
Cu      22.04404163      26.39818263       3.77116895
Cu      22.04404163      28.28376710       5.65675342
Cu      22.04404163      26.39818263       7.54233789
Cu      22.04404163      28.28376710       9.42792236
Cu      22.04404163      26.39818263      11.31350684
Cu      22.04404163      28.28376710      13.19909131
Cu      22.04404163      26.39818263      15.08467579
Cu      22.04404163      28.28376710      16.97026026
Cu      22.04404163      26.39818263      18.85584474
Cu      22.04404163      28.28376710      20.74142921
Cu      22.04404163      26.39818263      22.62701368
Cu      22.04404163      28.28376710      24.51259815
Cu      22.04404163      26.39818263      26.39818263
Cu      22.04404163      28.28376710      28.28376710
Cu      22.04404163      26.39818263      30.16935158
Cu      22.04404163      28.28376710      32.05493605
Cu      22.04404163      26.39818263      33.94052052
Cu      22.04404163      28.28376710      35.82610499
Cu      22.04404163      30.16935158       0.00000000
Cu      22.04404163      32.05493605       1.88558447
Cu      22.04404163      30.16935158       3.77116895
Cu      22.04404163      32.05493605       5.65675342
Cu      22.04404163      30.16935158       7.54233789
Cu      22.04404163      32.05493605       9.42792236
Cu      22.04404163      30.16935158      11.31350684
Cu      22.04404163      32.05493605      13.19909131
Cu      22.04404163      30.16935158      15.08467579
Cu      22.04404163      32.05493605      16.97026026
Cu      22.04404163      30.16935158      18.85584474
Cu      22.04404163      32.05493605      20.74142921
Cu      22.04404163      30.16935158      22.62701368
Cu      22.04404163      32.05493605      24.51259815
Cu      22.04404163      30.16935158      26.39818263
Cu      22.04404163      32.05493605      28.28376710
Cu      22.04404163      30.16935158      30.16935158
Cu      22.04404163      32.05493605      32.05493605
Cu      22.04404163      30.16935158      33.94052052
Cu      22.04404163      32.05493605      35.82610499
Cu      22.04404163      33.94052052       0.00000000
Cu      22.04404163      35.82610499       1.88558447
Cu      22.04404163      33.94052052       3.77116895
Cu      22.04404163      35.82610499       5.65675342
Cu      22.04404163      33.94052052       7.54233789
Cu      22.04404163      35.82610499       9.42792236
Cu      22.04404163      33.94052052      11.31350684
Cu      22.04404163      35.82610499      13.19909131
Cu      22.04404163      33.94052052      15.08467579
Cu      22.04404163      35.82610499      16.97026026
Cu      22.04404163      33.94052052      18.85584474
Cu      22.04404163      35.82610499      20.74142921
Cu      22.04404163      33.94052052      22.62701368
Cu      22.04404163      35.82610499      24.51259815
Cu      22.04404163      33.94052052      26.39818263
Cu      22.04404163      35.82610499      28.28376710
Cu      22.04404163      33.94052052      30.16935158
Cu      22.04404163      35.82610499      32.05493605
Cu      22.04404163      33.94052052      33.94052052
Cu      22.04404163      35.82610499      35.82610499
Cu      22.04404163      37.71168947       0.00000000
Cu      22.04404163      39.59727394       1.88558447
Cu      22.04404163      37.71168947       3.77116895
Cu      22.04404163      39.59727394       5.65675342
Cu      22.04404163      37.71168947       7.54233789
Cu      22.04404163      39.59727394       9.42792236
Cu      22.04404163      37.71168947      11.31350684
Cu      22.04404163      39.59727394      13.19909131
Cu      22.04404163      37.71168947      15.08467579
Cu      22.04404163      39.59727394      16.97026026
Cu      22.04404163      37.71168947      18.85584474
Cu      22.04404163      39.59727394      20.74142921
Cu      22.04404163      37.71168947      22.62701368
Cu      22.04404163      39.59727394      24.51259815
Cu      22.04404163      37.71168947      26.39818263
Cu      22.04404163      39.59727394      28.28376710
Cu      22.04404163      37.71168947      30.16935158
Cu      22.04404163      39.59727394      32.05493605
Cu      22.04404163      37.71168947      33.94052052
Cu      22.04404163      39.59727394      35.82610499
Cu      22.04404163      41.48285842       0.00000000
Cu      22.04404163      43.36844289       1.88558447
Cu      22.04404163      41.48285842       3.77116895
Cu      22.04404163      43.36844289       5.65675342
Cu      22.04404163      41.48285842       7.54233789
Cu      22.04404163      43.36844289       9.42792236
Cu      22.04404163      41.48285842      11.31350684
Cu      22.04404163      43.36844289      13.19909131
Cu      22.04404163      41.48285842      15.08467579
Cu      22.04404163      43.36844289      16.97026026
Cu      22.04404163      41.48285842      18.85584474
Cu      22.04404163      43.36844289      20.74142921
Cu      22.04404163      41.48285842      22.62701368
Cu      22.04404163      43.36844289      24.51259815
Cu      22.04404163      41.48285842      26.39818263
Cu      22.04404163      43.36844289      28.28376710
Cu      22.04404163      41.48285842      30.16935158
Cu      22.04404163      43.36844289      32.05493605
Cu      22.04404163      41.48285842      33.94052052
Cu      22.04404163      43.36844289      35.82610499
Cu      22.04404163      45.25402737       0.00000000
Cu      22.04404163      47.13961184       1.88558447
Cu      22.04404163      45.25402737       3.77116895
Cu      22.04404163      47.13961184       5.65675342
Cu      22.04404163      45.25402737       7.54233789
Cu      22.04404163      47.13961184       9.42792236
Cu      22.04404163      45.25402737      11.31350684
Cu      22.04404163      47.13961184      13.19909131
Cu      22.04404163      45.25402737      15.08467579
Cu      22.04404163      47.13961184      16.97026026
Cu      22.04404163      45.25402737      18.85584474
Cu      22.04404163      47.13961184      20.74142921
Cu      22.04404163      45.25402737      22.62701368
Cu      22.04404163      47.13961184      24.51259815
Cu      22.04404163      45.25402737      26.39818263
Cu      22.04404163      47.13961184      28.28376710
Cu      22.04404163      45.25402737      30.16935158
Cu      22.04404163      47.13961184      32.05493605
Cu      22.04404163      45.25402737      33.94052052
Cu      22.04404163      47.13961184      35.82610499
Cu      22.04404163      49.02519631       0.00000000
Cu      22.04404163      50.91078078       1.88558447
Cu      22.04404163      49.02519631       3.77116895
Cu      22.04404163      50.91078078       5.65675342
Cu      22.04404163      49.02519631       7.54233789
Cu      22.04404163      50.91078078       9.42792236
Cu      22.04404163      49.02519631      11.31350684
Cu      22.04404163      50.91078078      13.19909131
Cu      22.04404163      49.02519631      15.08467579
Cu      22.04404163      50.91078078      16.97026026
Cu      22.04404163      49.02519631      18.85584474
Cu      22.04404163      50.91078078      20.74142921
Cu      22.04404163      49.02519631      22.62701368
Cu      22.04404163      50.91078078      24.51259815
Cu      22.04404163      49.02519631      26.39818263
Cu      22.04404163      50.91078078      28.28376710
Cu      22.04404163      49.02519631      30.16935158
Cu      22.04404163      50.91078078      32.05493605
Cu      22.04404163      49.02519631      33.94052052
Cu      22.04404163      50.91078078      35.82610499
Cu      22.04404163      52.79636526       0.00000000
Cu      22.04404163      54.68194973       1.88558447
Cu      22.04404163      52.79636526       3.77116895
Cu      22.04404163      54.68194973       5.65675342
Cu      22.04404163      52.79636526       7.54233789
Cu      22.04404163      54.68194973       9.42792236
Cu      22.04404163      52.79636526      11.31350684
Cu      22.04404163      54.68194973      13.19909131
Cu      22.04404163      52.79636526      15.08467579
Cu      22.04404163      54.68194973      16.97026026
Cu      22.04404163      52.79636526      18.85584474
Cu      22.04404163      54.68194973      20.74142921
Cu      22.04404163      52.79636526      22.62701368
Cu      22.04404163      54.68194973      24.51259815
Cu      22.04404163      52.79636526      26.39818263
Cu      22.04404163      54.68194973      28.28376710
Cu      22.04404163      52.79636526      30.16935158
Cu      22.04404163      54.68194973      32.05493605
Cu      22.04404163      52.79636526      33.94052052
Cu      22.04404163      54.68194973      35.82610499
Cu      22.04404163      56.56753421       0.00000000
Cu      22.04404163      58.45311868       1.88558447
Cu      22.04404163      56.56753421       3.77116895
Cu      22.04404163      58.45311868       5.65675342
Cu      22.04404163      56.56753421       7.54233789
Cu      22.04404163      58.45311868       9.42792236
Cu      22.04404163      56.56753421      11.31350684
Cu      22.04404163      58.45311868      13.19909131
Cu      22.04404163      56.56753421      15.08467579
Cu      22.04404163      58.45311868      16.97026026
Cu      22.04404163      56.56753421      18.85584474
Cu      22.04404163      58.45311868      20.74142921
Cu      22.04404163      56.56753421      22.62701368
Cu      22.04404163      58.45311868      24.51259815
Cu      22.04404163      56.56753421      26.39818263
Cu      22.04404163      58.45311868      28.28376710
Cu      22.04404163      56.56753421      30.16935158
Cu      22.04404163      58.45311868      32.05493605
Cu      22.04404163      56.56753421      33.94052052
Cu      22.04404163      58.45311868      35.82610499
Cu      25.71804857       0.00000000       0.00000000
Cu      25.71804857       1.88558447       1.88558447
Cu      25.71804857       0.00000000       3.77116895
Cu      25.71804857       1.88558447       5.65675342
Cu      25.71804857       0.00000000       7.54233789
Cu      25.71804857       1.88558447       9.42792236
Cu      25.71804857       0.00000000      11.31350684
Cu      25.71804857       1.88558447      13.19909131
Cu      25.71804857       0.00000000      15.08467579
Cu      25.71804857       1.88558447      16.97026026
Cu      25.71804857       0.00000000      18.85584474
Cu      25.71804857       1.88558447      20.74142921
Cu      25.71804857       0.00000000      22.62701368
Cu      25.71804857       1.88558447      24.51259815
Cu      25.71804857       0.00000000      26.39818263
Cu      25.71804857       1.88558447      28.28376710
Cu      25.71804857       0.00000000      30.16935158
Cu      25.71804857       1.88558447      32.05493605
Cu      25.71804857       0.00000000      33.94052052
Cu      25.71804857       1.88558447      35.82610499
Cu      25.71804857       3.77116895       0.00000000
Cu      25.71804857       5.65675342       1.88558447
Cu      25.71804857       3.77116895       3.77116895
Cu      25.71804857       5.65675342       5.65675342
Cu      25.71804857       3.77116895       7.54233789
Cu      25.71804857       5.65675342       9.42792236
Cu      25.71804857       3.77116895      11.31350684
Cu      25.71804857       5.65675342      13.19909131
Cu      25.71804857       3.77116895      15.08467579
Cu      25.71804857       5.65675342      16.97026026
Cu      25.71804857       3.77116895      18.85584474
Cu      25.71804857       5.65675342      20.74142921
Cu      25.71804857       3.77116895      22.62701368
Cu      25.71804857       5.65675342      24.51259815
Cu      25.71804857       3.77116895      26.39818263
Cu      25.71804857       5.65675342      28.28376710
Cu      25.71804857       3.77116895      30.16935158
Cu      25.71804857       5.65675342      32.05493605
Cu      25.71804857       3.77116895      33.94052052
Cu      25.71804857       5.65675342      35.82610499
Cu      25.71804857       7.54233789       0.00000000
Cu      25.71804857       9.42792236       1.88558447
Cu      25.71804857       7.54233789       3.77116895
Cu      25.71804857       9.42792236       5.65675342
Cu      25.71804857       7.54233789       7.54233789
Cu      25.71804857       9.42792236       9.42792236
Cu      25.71804857       7.54233789      11.31350684
Cu      25.71804857       9.42792236      13.19909131
Cu      25.71804857       7.54233789      15.08467579
Cu      25.71804857       9.42792236      16.97026026
Cu      25.71804857       7.54233789      18.85584474
Cu      25.71804857       9.42792236      20.74142921
Cu      25.71804857       7.54233789      22.62701368
Cu      25.71804857       9.42792236      24.51259815
Cu      25.71804857       7.54233789      26.39818263
Cu      25.71804857       9.42792236      28.28376710
Cu      25.71804857       7.54233789      30.16935158
Cu      25.71804857       9.42792236      32.05493605
Cu      25.71804857       7.54233789      33.94052052
Cu      25.71804857       9.42792236      35.82610499
Cu      25.71804857      11.31350684       0.00000000
Cu      25.71804857      13.19909131       1.88558447
Cu      25.71804857      11.31350684       3.77116895
Cu      25.71804857      13.19909131       5.65675342
Cu      25.71804857      11.31350684       7.54233789
Cu      25.71804857      13.19909131       9.42792236
Cu      25.71804857      11.31350684      11.31350684
Cu      25.71804857      13.19909131      13.19909131
Cu      25.71804857      11.31350684      15.08467579
Cu      25.71804857      13.19909131      16.97026026
Cu      25.71804857      11.31350684      18.85584474
Cu      25.71804857      13.19909131      20.74142921
Cu      25.71804857      11.31350684      22.62701368
Cu      25.71804857      13.19909131      24.51259815
Cu      25.71804857      11.31350684      26.39818263
Cu      25.71804857      13.19909131      28.28376710
Cu      25.71804857      11.31350684      30.16935158
Cu      25.71804857      13.19909131      32.05493605
Cu      25.71804857      11.31350684      33.94052052
Cu      25.71804857      13.19909131      35.82610499
Cu      25.71804857      15.08467579       0.00000000
Cu      25.71804857      16.97026026       1.88558447
Cu      25.71804857      15.08467579       3.77116895
Cu      25.71804857      16.97026026       5.65675342
Cu      25.71804857      15.08467579       7.54233789
Cu      25.71804857      16.97026026       9.42792236
Cu      25.71804857      15.08467579      11.31350684
Cu      25.71804857      16.97026026      13.19909131
Cu      25.71804857      15.08467579      15.08467579
Cu      25.71804857      16.97026026      16.97026026
Cu      25.71804857      15.08467579      18.85584474
Cu      25.71804857      16.97026026      20.74142921
Cu      25.71804857      15.08467579      22.62701368
Cu      25.71804857      16.97026026      24.51259815
Cu      25.71804857      15.08467579      26.39818263
Cu      25.71804857      16.97026026      28.28376710
Cu      25.71804857      15.08467579      30.16935158
Cu      25.71804857      16.97026026      32.05493605
Cu      25.71804857      15.08467579      33.94052052
Cu      25.71804857      16.97026026      35.82610499
Cu      25.71804857      18.85584474       0.00000000
Cu      25.71804857      20.74142921       1.88558447
Cu      25.71804857      18.85584474       3.77116895
Cu      25.71804857      20.74142921       5.65675342
Cu      25.71804857      18.85584474       7.54233789
Cu      25.71804857      20.74142921       9.42792236
Cu      25.71804857      18.85584474      11.31350684
Cu      25.71804857      20.74142921      13.19909131
Cu      25.71804857      18.85584474      15.08467579
Cu      25.71804857      20.74142921      16.97026026
Cu      25.71804857      18.85584474      18.85584474
Cu      25.71804857      20.74142921      20.74142921
Cu      25.71804857      18.85584474      22.62701368
Cu      25.71804857      20.74142921      24.51259815
Cu      25.71804857      18.85584474      26.39818263
Cu      25.71804857      20.74142921      28.28376710
Cu      25.71804857      18.85584474      30.16935158
Cu      25.71804857      20.74142921      32.05493605
Cu      25.71804857      18.85584474      33.94052052
Cu      25.71804857      20.74142921      35.82610499
Cu      25.71804857      22.62701368       0.00000000
Cu      25.71804857      24.51259815       1.88558447
Cu      25.71804857      22.62701368       3.77116895
Cu      25.71804857      24.51259815       5.65675342
Cu      25.71804857      22.62701368       7.54233789
Cu      25.71804857      24.51259815       9.42792236
Cu      25.71804857      22.62701368      11.31350684
Cu      25.71804857      24.51259815      13.19909131
Cu      25.71804857      22.62701368      15.08467579
Cu      25.71804857      24.51259815      16.97026026
Cu      25.71804857      22.62701368      18.85584474
Cu      25.71804857      24.51259815      20.74142921
Cu      25.71804857      22.62701368      22.62701368
Cu      25.71804857      24.51259815      24.51259815
Cu      25.71804857      22.62701368      26.39818263
Cu      25.71804857      24.51259815      28.28376710
Cu      25.71804857      22.62701368      30.16935158
Cu      25.71804857      24.51259815      32.05493605
Cu      25.71804857      22.62701368      33.94052052
Cu      25.71804857      24.51259815      35.82610499
Cu      25.71804857      26.39818263       0.00000000
Cu      25.71804857      28.28376710       1.88558447
Cu      25.71804857      26.39818263       3.77116895
Cu      25.71804857      28.28376710       5.65675342
Cu      25.71804857      26.39818263       7.54233789
Cu      25.71804857      28.28376710       9.42792236
Cu      25.71804857      26.39818263      11.31350684
Cu      25.71804857      28.28376710      13.19909131
Cu      25.71804857      26.39818263      15.08467579
Cu      25.71804857      28.28376710      16.97026026
Cu      25.71804857      26.39818263      18.85584474
Cu      25.71804857      28.28376710      20.74142921
Cu      25.71804857      26.39818263      22.62701368
Cu      25.71804857      28.28376710      24.51259815
Cu      25.71804857      26.39818263      26.39818263
Cu      25.71804857      28.28376710      28.28376710
Cu      25.71804857      26.39818263      30.16935158
Cu      25.71804857      28.28376710      32.05493605
Cu      25.71804857      26.39818263      33.94052052
Cu      25.71804857      28.28376710      35.82610499
Cu      25.71804857      30.16935158       0.00000000
Cu      25.71804857      32.05493605       1.88558447
Cu      25.71804857      30.16935158       3.77116895
Cu      25.71804857      32.05493605       5.65675342
Cu      25.71804857      30.16935158       7.54233789
Cu      25.71804857      32.05493605       9.42792236
Cu      25.71804857      30.16935158      11.31350684
Cu      25.71804857      32.05493605      13.19909131
Cu      25.71804857      30.16935158      15.08467579
Cu      25.71804857      32.05493605      16.97026026
Cu      25.71804857      30.16935158      18.85584474
Cu      25.71804857      32.05493605      20.74142921
Cu      25.71804857      30.16935158      22.62701368
Cu      25.71804857      32.05493605      24.51259815
Cu      25.71804857      30.16935158      26.39818263
Cu      25.71804857      32.05493605      28.28376710
Cu      25.71804857      30.16935158      30.16935158
Cu      25.71804857      32.05493605      32.05493605
Cu      25.71804857      30.16935158      33.94052052
Cu      25.71804857      32.05493605      35.82610499
Cu      25.71804857      33.94052052       0.00000000
Cu      25.71804857      35.82610499       1.88558447
Cu      25.71804857      33.94052052       3.77116895
Cu      25.71804857      35.82610499       5.65675342
Cu      25.71804857      33.94052052       7.54233789
Cu      25.71804857      35.82610499       9.42792236
Cu      25.71804857      33.94052052      11.31350684
Cu      25.71804857      35.82610499      13.19909131
Cu      25.71804857      33.94052052      15.08467579
Cu      25.71804857      35.82610499      16.97026026
Cu      25.71804857      33.94052052      18.85584474
Cu      25.71804857      35.82610499      20.74142921
Cu      25.71804857      33.94052052      22.62701368
Cu      25.71804857      35.82610499      24.51259815
Cu      25.71804857      33.94052052      26.39818263
Cu      25.71804857      35.82610499      28.28376710
Cu      25.71804857      33.94052052      30.16935158
Cu      25.71804857      35.82610499      32.05493605
Cu      25.71804857      33.94052052      33.94052052
Cu      25.71804857      35.82610499      35.82610499
Cu      25.71804857      37.71168947       0.00000000
Cu      25.71804857      39.59727394       1.88558447
Cu      25.71804857      37.71168947       3.77116895
Cu      25.71804857      39.59727394       5.65675342
Cu      25.71804857      37.71168947       7.54233789
Cu      25.71804857      39.59727394       9.42792236
Cu      25.71804857      37.71168947      11.31350684
Cu      25.71804857      39.59727394      13.19909131
Cu      25.71804857      37.71168947      15.08467579
Cu      25.71804857      39.59727394      16.97026026
Cu      25.71804857      37.71168947      18.85584474
Cu      25.71804857      39.59727394      20.74142921
Cu      25.71804857      37.71168947      22.62701368
Cu      25.71804857      39.59727394      24.51259815
Cu      25.71804857      37.71168947      26.39818263
Cu      25.71804857      39.59727394      28.28376710
Cu      25.71804857      37.71168947      30.16935158
Cu      25.71804857      39.59727394      32.05493605
Cu      25.71804857      37.71168947      33.94052052
Cu      25.71804857      39.59727394      35.82610499
Cu      25.71804857      41.48285842       0.00000000
Cu      25.71804857      43.36844289       1.88558447
Cu      25.71804857      41.48285842       3.77116895
Cu      25.71804857      43.36844289       5.65675342
Cu      25.71804857      41.48285842       7.54233789
Cu      25.71804857      43.36844289       9.42792236
Cu      25.71804857      41.48285842      11.31350684
Cu      25.71804857      43.36844289      13.19909131
Cu      25.71804857      41.48285842      15.08467579
Cu      25.71804857      43.36844289      16.97026026
Cu      25.71804857      41.48285842      18.85584474
Cu      25.71804857      43.36844289      20.74142921
Cu      25.71804857      41.48285842      22.62701368
Cu      25.71804857      43.36844289      24.51259815
Cu      25.71804857      41.48285842      26.39818263
Cu      25.71804857      43.36844289      28.28376710
Cu      25.71804857      41.48285842      30.16935158
Cu      25.71804857      43.36844289      32.05493605
Cu      25.71804857      41.48285842      33.94052052
Cu      25.71804857      43.36844289      35.82610499
Cu      25.71804857      45.25402737       0.00000000
Cu      25.71804857      47.13961184       1.88558447
Cu      25.71804857      45.25402737       3.77116895
Cu      25.71804857      47.13961184       5.65675342
Cu      25.71804857      45.25402737       7.54233789
Cu      25.71804857      47.13961184       9.42792236
Cu      25.71804857      45.25402737      11.31350684
Cu      25.71804857      47.13961184      13.19909131
Cu      25.71804857      45.25402737      15.08467579
Cu      25.71804857      47.13961184      16.97026026
Cu      25.71804857      45.25402737      18.85584474
Cu      25.71804857      47.13961184      20.74142921
Cu      25.71804857      45.25402737      22.62701368
Cu      25.71804857      47.13961184      24.51259815
Cu      25.71804857      45.25402737      26.39818263
Cu      25.71804857      47.13961184      28.28376710
Cu      25.71804857      45.25402737      30.16935158
Cu      25.71804857      47.13961184      32.05493605
Cu      25.71804857      45.25402737      33.94052052
Cu      25.71804857      47.13961184      35.82610499
Cu      25.71804857      49.02519631       0.00000000
Cu      25.71804857      50.91078078       1.88558447
Cu      25.71804857      49.02519631       3.77116895
Cu      25.71804857      50.91078078       5.65675342
Cu      25.71804857      49.02519631       7.54233789
Cu      25.71804857      50.91078078       9.42792236
Cu      25.71804857      49.02519631      11.31350684
Cu      25.71804857      50.91078078      13.19909131
Cu      25.71804857      49.02519631      15.08467579
Cu      25.71804857      50.91078078      16.97026026
Cu      25.71804857      49.02519631      18.85584474
Cu      25.71804857      50.91078078      20.74142921
Cu      25.71804857      49.02519631      22.62701368
Cu      25.71804857      50.91078078      24.51259815
Cu      25.71804857      49.02519631      26.39818263
Cu      25.71804857      50.91078078      28.28376710
Cu      25.71804857      49.02519631      30.16935158
Cu      25.71804857      50.91078078      32.05493605
Cu      25.71804857      49.02519631      33.94052052
Cu      25.71804857      50.91078078      35.82610499
Cu      25.71804857      52.79636526       0.00000000
Cu      25.71804857      54.68194973       1.88558447
Cu      25.71804857      52.79636526       3.77116895
Cu      25.71804857      54.68194973       5.65675342
Cu      25.71804857      52.79636526       7.54233789
Cu      25.71804857      54.68194973       9.42792236
Cu      25.71804857      52.79636526      11.31350684
Cu      25.71804857      54.68194973      13.19909131
Cu      25.71804857      52.79636526      15.08467579
Cu      25.71804857      54.68194973      16.97026026
Cu      25.71804857      52.79636526      18.85584474
Cu      25.71804857      54.68194973      20.74142921
Cu      25.71804857      52.79636526      22.62701368
Cu      25.71804857      54.68194973      24.51259815
Cu      25.71804857      52.79636526      26.39818263
Cu      25.71804857      54.68194973      28.28376710
Cu      25.71804857      52.79636526      30.16935158
Cu      25.71804857      54.68194973      32.05493605
Cu      25.71804857      52.79636526      33.94052052
Cu      25.71804857      54.68194973      35.82610499
Cu      25.71804857      56.56753421       0.00000000
Cu      25.71804857      58.45311868       1.88558447
Cu      25.71804857      56.56753421       3.77116895
Cu      25.71804857      58.45311868       5.65675342
Cu      25.71804857      56.56753421       7.54233789
Cu      25.71804857      58.45311868       9.42792236
Cu      25.71804857      56.56753421      11.31350684
Cu      25.71804857      58.45311868      13.19909131
Cu      25.71804857      56.56753421      15.08467579
Cu      25.71804857      58.45311868      16.97026026
Cu      25.71804857      56.56753421      18.85584474
Cu      25.71804857      58.45311868      20.74142921
Cu      25.71804857      56.56753421      22.62701368
Cu      25.71804857      58.45311868      24.51259815
Cu      25.71804857      56.56753421      26.39818263
Cu      25.71804857      58.45311868      28.28376710
Cu      25.71804857      56.56753421      30.16935158
Cu      25.71804857      58.45311868      32.05493605
Cu      25.71804857      56.56753421      33.94052052
Cu      25.71804857      58.45311868      35.82610499
Cu      29.39205551       0.00000000       0.00000000
Cu      29.39205551       1.88558447       1.88558447
Cu      29.39205551       0.00000000       3.77116895
Cu      29.39205551       1.88558447       5.65675342
Cu      29.39205551       0.00000000       7.54233789
Cu      29.39205551       1.88558447       9.42792236
Cu      29.39205551       0.00000000      11.31350684
Cu      29.39205551       1.88558447      13.19909131
Cu      29.39205551       0.00000000      15.08467579
Cu      29.39205551       1.88558447      16.97026026
Cu      29.39205551       0.00000000      18.85584474
Cu      29.39205551       1.88558447      20.74142921
Cu      29.39205551       0.00000000      22.62701368
Cu      29.39205551       1.88558447      24.51259815
Cu      29.39205551       0.00000000      26.39818263
Cu      29.39205551       1.88558447      28.28376710
Cu      29.39205551       0.00000000      30.16935158
Cu      29.39205551       1.88558447      32.05493605
Cu      29.39205551       0.00000000      33.94052052
Cu      29.39205551       1.88558447      35.82610499
Cu      29.39205551       3.77116895       0.00000000
Cu      29.39205551       5.65675342       1.88558447
Cu      29.39205551       3.77116895       3.77116895
Cu      29.39205551       5.65675342       5.65675342
Cu      29.39205551       3.77116895       7.54233789
Cu      29.39205551       5.65675342       9.42792236
Cu      29.39205551       3.77116895      11.31350684
Cu      29.39205551       5.65675342      13.19909131
Cu      29.39205551       3.77116895      15.08467579
Cu      29.39205551       5.65675342      16.97026026
Cu      29.39205551       3.77116895      18.85584474
Cu      29.39205551       5.65675342      20.74142921
Cu      29.39205551       3.77116895      22.62701368
Cu      29.39205551       5.65675342      24.51259815
Cu      29.39205551       3.77116895      26.39818263
Cu      29.39205551       5.65675342      28.28376710
Cu      29.39205551       3.77116895      30.16935158
Cu      29.39205551       5.65675342      32.05493605
Cu      29.39205551       3.77116895      33.94052052
Cu      29.39205551       5.65675342      35.82610499
Cu      29.39205551       7.54233789       0.00000000
Cu      29.39205551       9.42792236       1.88558447
Cu      29.39205551       7.54233789       3.77116895
Cu      29.39205551       9.42792236       5.65675342
Cu      29.39205551       7.54233789       7.54233789
Cu      29.39205551       9.42792236       9.42792236
Cu      29.39205551       7.54233789      11.31350684
Cu      29.39205551       9.42792236      13.19909131
Cu      29.39205551       7.54233789      15.08467579
Cu      29.39205551       9.42792236      16.97026026
Cu      29.39205551       7.54233789      18.85584474
Cu      29.39205551       9.42792236      20.74142921
Cu      29.39205551       7.54233789      22.62701368
Cu      29.39205551       9.42792236      24.51259815
Cu      29.39205551       7.54233789      26.39818263
Cu      29.39205551       9.42792236      28.28376710
Cu      29.39205551       7.54233789      30.16935158
Cu      29.39205551       9.42792236      32.05493605
Cu      29.39205551       7.54233789      33.94052052
Cu      29.39205551       9.42792236      35.82610499
Cu      29.39205551      11.31350684       0.00000000
Cu      29.39205551      13.19909131       1.88558447
Cu      29.39205551      11.31350684       3.77116895
Cu      29.39205551      13.19909131       5.65675342
Cu      29.39205551      11.31350684       7.54233789
Cu      29.39205551      13.19909131       9.42792236
Cu      29.39205551      11.31350684      11.31350684
Cu      29.39205551      13.19909131      13.19909131
Cu      29.39205551      11.31350684      15.08467579
Cu      29.39205551      13.19909131      16.97026026
Cu      29.39205551      11.31350684      18.85584474
Cu      29.39205551      13.19909131      20.74142921
Cu      29.39205551      11.31350684      22.62701368
Cu      29.39205551      13.19909131      24.51259815
Cu      29.39205551      11.31350684      26.39818263
Cu      29.39205551      13.19909131      28.28376710
Cu      29.39205551      11.31350684      30.16935158
Cu      29.39205551      13.19909131      32.05493605
Cu      29.39205551      11.31350684      33.94052052
Cu      29.39205551      13.19909131      35.82610499
Cu      29.39205551      15.08467579       0.00000000
Cu      29.39205551      16.97026026       1.88558447
Cu      29.39205551      15.08467579       3.77116895
Cu      29.39205551      16.97026026       5.65675342
Cu      29.39205551      15.08467579       7.54233789
Cu      29.39205551      16.97026026       9.42792236
Cu      29.39205551      15.08467579      11.31350684
Cu      29.39205551      16.97026026      13.19909131
Cu      29.39205551      15.08467579      15.08467579
Cu      29.39205551      16.97026026      16.97026026
Cu      29.39205551      15.08467579      18.85584474
Cu      29.39205551      16.97026026      20.74142921
Cu      29.39205551      15.08467579      22.62701368
Cu      29.39205551      16.97026026      24.51259815
Cu      29.39205551      15.08467579      26.39818263
Cu      29.39205551      16.97026026      28.28376710
Cu      29.39205551      15.08467579      30.16935158
Cu      29.39205551      16.97026026      32.05493605
Cu      29.39205551      15.08467579      33.94052052
Cu      29.39205551      16.97026026      35.82610499
Cu      29.39205551      18.85584474       0.00000000
Cu      29.39205551      20.74142921       1.88558447
Cu      29.39205551      18.85584474       3.77116895
Cu      29.39205551      20.74142921       5.65675342
Cu      29.39205551      18.85584474       7.54233789
Cu      29.39205551      20.74142921       9.42792236
Cu      29.39205551      18.85584474      11.31350684
Cu      29.39205551      20.74142921      13.19909131
Cu      29.39205551      18.85584474      15.08467579
Cu      29.39205551      20.74142921      16.97026026
Cu      29.39205551      18.85584474      18.85584474
Cu      29.39205551      20.74142921      20.74142921
Cu      29.39205551      18.85584474      22.62701368
Cu      29.39205551      20.74142921      24.51259815
Cu      29.39205551      18.85584474      26.39818263
Cu      29.39205551      20.74142921      28.28376710
Cu      29.39205551      18.85584474      30.16935158
Cu      29.39205551      20.74142921      32.05493605
Cu      29.39205551      18.85584474      33.94052052
Cu      29.39205551      20.74142921      35.82610499
Cu      29.39205551      22.62701368       0.00000000
Cu      29.39205551      24.51259815       1.88558447
Cu      29.39205551      22.62701368       3.77116895
Cu      29.39205551      24.51259815       5.65675342
Cu      29.39205551      22.62701368       7.54233789
Cu      29.39205551      24.51259815       9.42792236
Cu      29.39205551      22.62701368      11.31350684
Cu      29.39205551      24.51259815      13.19909131
Cu      29.39205551      22.62701368      15.08467579
Cu      29.39205551      24.51259815      16.97026026
Cu      29.39205551      22.62701368      18.85584474
Cu      29.39205551      24.51259815      20.74142921
Cu      29.39205551      22.62701368      22.62701368
Cu      29.39205551      24.51259815      24.51259815
Cu      29.39205551      22.62701368      26.39818263
Cu      29.39205551      24.51259815      28.28376710
Cu      29.39205551      22.62701368      30.16935158
Cu      29.39205551      24.51259815      32.05493605
Cu      29.39205551      22.62701368      33.94052052
Cu      29.39205551      24.51259815      35.82610499
Cu      29.39205551      26.39818263       0.00000000
Cu      29.39205551      28.28376710       1.88558447
Cu      29.39205551      26.39818263       3.77116895
Cu      29.39205551      28.28376710       5.65675342
Cu      29.39205551      26.39818263       7.54233789
Cu      29.39205551      28.28376710       9.42792236
Cu      29.39205551      26.39818263      11.31350684
Cu      29.39205551      28.28376710      13.19909131
Cu      29.39205551      26.39818263      15.08467579
Cu      29.39205551      28.28376710      16.97026026
Cu      29.39205551      26.39818263      18.85584474
Cu      29.39205551      28.28376710      20.74142921
Cu      29.39205551      26.39818263      22.62701368
Cu      29.39205551      28.28376710      24.51259815
Cu      29.39205551      26.39818263      26.39818263
Cu      29.39205551      28.28376710      28.28376710
Cu      29.39205551      26.39818263      30.16935158
Cu      29.39205551      28.28376710      32.05493605
Cu      29.39205551      26.39818263      33.94052052
Cu      29.39205551      28.28376710      35.82610499
Cu      29.39205551      30.16935158       0.00000000
Cu      29.39205551      32.05493605       1.88558447
Cu      29.39205551      30.16935158       3.77116895
Cu      29.39205551      32.05493605       5.65675342
Cu      29.39205551      30.16935158       7.54233789
Cu      29.39205551      32.05493605       9.42792236
Cu      29.39205551      30.16935158      11.31350684
Cu      29.39205551      32.05493605      13.19909131
Cu      29.39205551      30.16935158      15.08467579
Cu      29.39205551      32.05493605      16.97026026
Cu      29.39205551      30.16935158      18.85584474
Cu      29.39205551      32.05493605      20.74142921
Cu      29.39205551      30.16935158      22.62701368
Cu      29.39205551      32.05493605      24.51259815
Cu      29.39205551      30.16935158      26.39818263
Cu      29.39205551      32.05493605      28.28376710
Cu      29.39205551      30.16935158      30.16935158
Cu      29.39205551      32.05493605      32.05493605
Cu      29.39205551      30.16935158      33.94052052
Cu      29.39205551      32.05493605      35.82610499
Cu      29.39205551      33.94052052       0.00000000
Cu      29.39205551      35.82610499       1.88558447
Cu      29.39205551      33.94052052       3.77116895
Cu      29.39205551      35.82610499       5.65675342
Cu      29.39205551      33.94052052       7.54233789
Cu      29.39205551      35.82610499       9.42792236
Cu      29.39205551      33.94052052      11.31350684
Cu      29.39205551      35.82610499      13.19909131
Cu      29.39205551      33.94052052      15.08467579
Cu      29.39205551      35.82610499      16.97026026
Cu      29.39205551      33.94052052      18.85584474
Cu      29.39205551      35.82610499      20.74142921
Cu      29.39205551      33.94052052      22.62701368
Cu      29.39205551      35.82610499      24.51259815
Cu      29.39205551      33.94052052      26.39818263
Cu      29.39205551      35.82610499      28.28376710
Cu      29.39205551      33.94052052      30.16935158
Cu      29.39205551      35.82610499      32.05493605
Cu      29.39205551      33.94052052      33.94052052
Cu      29.39205551      35.82610499      35.82610499
Cu      29.39205551      37.71168947       0.00000000
Cu      29.39205551      39.59727394       1.88558447
Cu      29.39205551      37.71168947       3.77116895
Cu      29.39205551      39.59727394       5.65675342
Cu      29.39205551      37.71168947       7.54233789
Cu      29.39205551      39.59727394       9.42792236
Cu      29.39205551      37.71168947      11.31350684
Cu      29.39205551      39.59727394      13.19909131
Cu      29.39205551      37.71168947      15.08467579
Cu      29.39205551      39.59727394      16.97026026
Cu      29.39205551      37.71168947      18.85584474
Cu      29.39205551      39.59727394      20.74142921
Cu      29.39205551      37.71168947      22.62701368
Cu      29.39205551      39.59727394      24.51259815
Cu      29.39205551      37.71168947      26.39818263
Cu      29.39205551      39.59727394      28.28376710
Cu      29.39205551      37.71168947      30.16935158
Cu      29.39205551      39.59727394      32.05493605
Cu      29.39205551      37.71168947      33.94052052
Cu      29.39205551      39.59727394      35.82610499
Cu      29.39205551      41.48285842       0.00000000
Cu      29.39205551      43.36844289       1.88558447
Cu      29.39205551      41.48285842       3.77116895
Cu      29.39205551      43.36844289       5.65675342
Cu      29.39205551      41.48285842       7.54233789
Cu      29.39205551      43.36844289       9.42792236
Cu      29.39205551      41.48285842      11.31350684
Cu      29.39205551      43.36844289      13.19909131
Cu      29.39205551      41.48285842      15.08467579
Cu      29.39205551      43.36844289      16.97026026
Cu      29.39205551      41.48285842      18.85584474
Cu      29.39205551      43.36844289      20.74142921
Cu      29.39205551      41.48285842      22.62701368
Cu      29.39205551      43.36844289      24.51259815
Cu      29.39205551      41.48285842      26.39818263
Cu      29.39205551      43.36844289      28.28376710
Cu      29.39205551      41.48285842      30.16935158
Cu      29.39205551      43.36844289      32.05493605
Cu      29.39205551      41.48285842      33.94052052
Cu      29.39205551      43.36844289      35.82610499
Cu      29.39205551      45.25402737       0.00000000
Cu      29.39205551      47.13961184       1.88558447
Cu      29.39205551      45.25402737       3.77116895
Cu      29.39205551      47.13961184       5.65675342
Cu      29.39205551      45.25402737       7.54233789
Cu      29.39205551      47.13961184       9.42792236
Cu      29.39205551      45.25402737      11.31350684
Cu      29.39205551      47.13961184      13.19909131
Cu      29.39205551      45.25402737      15.08467579
Cu      29.39205551      47.13961184      16.97026026
Cu      29.39205551      45.25402737      18.85584474
Cu      29.39205551      47.13961184      20.74142921
Cu      29.39205551      45.25402737      22.62701368
Cu      29.39205551      47.13961184      24.51259815
Cu      29.39205551      45.25402737      26.39818263
Cu      29.39205551      47.13961184      28.28376710
Cu      29.39205551      45.25402737      30.16935158
Cu      29.39205551      47.13961184      32.05493605
Cu      29.39205551      45.25402737      33.94052052
Cu      29.39205551      47.13961184      35.82610499
Cu      29.39205551      49.02519631       0.00000000
Cu      29.39205551      50.91078078       1.88558447
Cu      29.39205551      49.02519631       3.77116895
Cu      29.39205551      50.91078078       5.65675342
Cu      29.39205551      49.02519631       7.54233789
Cu      29.39205551      50.91078078       9.42792236
Cu      29.39205551      49.02519631      11.31350684
Cu      29.39205551      50.91078078      13.19909131
Cu      29.39205551      49.02519631      15.08467579
Cu      29.39205551      50.91078078      16.97026026
Cu      29.39205551      49.02519631      18.85584474
Cu      29.39205551      50.91078078      20.74142921
Cu      29.39205551      49.02519631      22.62701368
Cu      29.39205551      50.91078078      24.51259815
Cu      29.39205551      49.02519631      26.39818263
Cu      29.39205551      50.91078078      28.28376710
Cu      29.39205551      49.02519631      30.16935158
Cu      29.39205551      50.91078078      32.05493605
Cu      29.39205551      49.02519631      33.94052052
Cu      29.39205551      50.91078078      35.82610499
Cu      29.39205551      52.79636526       0.00000000
Cu      29.39205551      54.68194973       1.88558447
Cu      29.39205551      52.79636526       3.77116895
Cu      29.39205551      54.68194973       5.65675342
Cu      29.39205551      52.79636526       7.54233789
Cu      29.39205551      54.68194973       9.42792236
Cu      29.39205551      52.79636526      11.31350684
Cu      29.39205551      54.68194973      13.19909131
Cu      29.39205551      52.79636526      15.08467579
Cu      29.39205551      54.68194973      16.97026026
Cu      29.39205551      52.79636526      18.85584474
Cu      29.39205551      54.68194973      20.74142921
Cu      29.39205551      52.79636526      22.62701368
Cu      29.39205551      54.68194973      24.51259815
Cu      29.39205551      52.79636526      26.39818263
Cu      29.39205551      54.68194973      28.28376710
Cu      29.39205551      52.79636526      30.16935158
Cu      29.39205551      54.68194973      32.05493605
Cu      29.39205551      52.79636526      33.94052052
Cu      29.39205551      54.68194973      35.82610499
Cu      29.39205551      56.56753421       0.00000000
Cu      29.39205551      58.45311868       1.88558447
Cu      29.39205551      56.56753421       3.77116895
Cu      29.39205551      58.45311868       5.65675342
Cu      29.39205551      56.56753421       7.54233789
Cu      29.39205551      58.45311868       9.42792236
Cu      29.39205551      56.56753421      11.31350684
Cu      29.39205551      58.45311868      13.19909131
Cu      29.39205551      56.56753421      15.08467579
Cu      29.39205551      58.45311868      16.97026026
Cu      29.39205551      56.56753421      18.85584474
Cu      29.39205551      58.45311868      20.74142921
Cu      29.39205551      56.56753421      22.62701368
Cu      29.39205551      58.45311868      24.51259815
Cu      29.39205551      56.56753421      26.39818263
Cu      29.39205551      58.45311868      28.28376710
Cu      29.39205551      56.56753421      30.16935158
Cu      29.39205551      58.45311868      32.05493605
Cu      29.39205551      56.56753421      33.94052052
Cu      29.39205551      58.45311868      35.82610499
Cu      33.06606245       0.00000000       0.00000000
Cu      33.06606245       1.88558447       1.88558447
Cu      33.06606245       0.00000000       3.77116895
Cu      33.06606245       1.88558447       5.65675342
Cu      33.06606245       0.00000000       7.54233789
Cu      33.06606245       1.88558447       9.42792236
Cu      33.06606245       0.00000000      11.31350684
Cu      33.06606245       1.88558447      13.19909131
Cu      33.06606245       0.00000000      15.08467579
Cu      33.06606245       1.88558447      16.97026026
Cu      33.06606245       0.00000000      18.85584474
Cu      33.06606245       1.88558447      20.74142921
Cu      33.06606245       0.00000000      22.62701368
Cu      33.06606245       1.88558447      24.51259815
Cu      33.06606245       0.00000000      26.39818263
Cu      33.06606245       1.88558447      28.28376710
Cu      33.06606245       0.00000000      30.16935158
Cu      33.06606245       1.88558447      32.05493605
Cu      33.06606245       0.00000000      33.94052052
Cu      33.06606245       1.88558447      35.82610499
Cu      33.06606245       3.77116895       0.00000000
Cu      33.06606245       5.65675342       1.88558447
Cu      33.06606245       3.77116895       3.77116895
Cu      33.06606245       5.65675342       5.65675342
Cu      33.06606245       3.77116895       7.54233789
Cu      33.06606245       5.65675342       9.42792236
Cu      33.06606245       3.77116895      11.31350684
Cu      33.06606245       5.65675342      13.19909131
Cu      33.06606245       3.77116895      15.08467579
Cu      33.06606245       5.65675342      16.97026026
Cu      33.06606245       3.77116895      18.85584474
Cu      33.06606245       5.65675342      20.74142921
Cu      33.06606245       3.77116895      22.62701368
Cu      33.06606245       5.65675342      24.51259815
Cu      33.06606245       3.77116895      26.39818263
Cu      33.06606245       5.65675342      28.28376710
Cu      33.06606245       3.77116895      30.16935158
Cu      33.06606245       5.65675342      32.05493605
Cu      33.06606245       3.77116895      33.94052052
Cu      33.06606245       5.65675342      35.82610499
Cu      33.06606245       7.54233789       0.00000000
Cu      33.06606245       9.42792236       1.88558447
Cu      33.06606245       7.54233789       3.77116895
Cu      33.06606245       9.42792236       5.65675342
Cu      33.06606245       7.54233789       7.54233789
Cu      33.06606245       9.42792236       9.42792236
Cu      33.06606245       7.54233789      11.31350684
Cu      33.06606245       9.42792236      13.19909131
Cu      33.06606245       7.54233789      15.08467579
Cu      33.06606245       9.42792236      16.97026026
Cu      33.06606245       7.54233789      18.85584474
Cu      33.06606245       9.42792236      20.74142921
Cu      33.06606245       7.54233789      22.62701368
Cu      33.06606245       9.42792236      24.51259815
Cu      33.06606245       7.54233789      26.39818263
Cu      33.06606245       9.42792236      28.28376710
Cu      33.06606245       7.54233789      30.16935158
Cu      33.06606245       9.42792236      32.05493605
Cu      33.06606245       7.54233789      33.94052052
Cu      33.06606245       9.42792236      35.82610499
Cu      33.06606245      11.31350684       0.00000000
Cu      33.06606245      13.19909131       1.88558447
Cu      33.06606245      11.31350684       3.77116895
Cu      33.06606245      13.19909131       5.65675342
Cu      33.06606245      11.31350684       7.54233789
Cu      33.06606245      13.19909131       9.42792236
Cu      33.06606245      11.31350684      11.31350684
Cu      33.06606245      13.19909131      13.19909131
Cu      33.06606245      11.31350684      15.08467579
Cu      33.06606245      13.19909131      16.97026026
Cu      33.06606245      11.31350684      18.85584474
Cu      33.06606245      13.19909131      20.74142921
Cu      33.06606245      11.31350684      22.62701368
Cu      33.06606245      13.19909131      24.51259815
Cu      33.06606245      11.31350684      26.39818263
Cu      33.06606245      13.19909131      28.28376710
Cu      33.06606245      11.31350684      30.16935158
Cu      33.06606245      13.19909131      32.05493605
Cu      33.06606245      11.31350684      33.94052052
Cu      33.06606245      13.19909131      35.82610499
Cu      33.06606245      15.08467579       0.00000000
Cu      33.06606245      16.97026026       1.88558447
Cu      33.06606245      15.08467579       3.77116895
Cu      33.06606245      16.97026026       5.65675342
Cu      33.06606245      15.08467579       7.54233789
Cu      33.06606245      16.97026026       9.42792236
Cu      33.06606245      15.08467579      11.31350684
Cu      33.06606245      16.97026026      13.19909131
Cu      33.06606245      15.08467579      15.08467579
Cu      33.06606245      16.97026026      16.97026026
Cu      33.06606245      15.08467579      18.85584474
Cu      33.06606245      16.97026026      20.74142921
Cu      33.06606245      15.08467579      22.62701368
Cu      33.06606245      16.97026026      24.51259815
Cu      33.06606245      15.08467579      26.39818263
Cu      33.06606245      16.97026026      28.28376710
Cu      33.06606245      15.08467579      30.16935158
Cu      33.06606245      16.97026026      32.05493605
Cu      33.06606245      15.08467579      33.94052052
Cu      33.06606245      16.97026026      35.82610499
Cu      33.06606245      18.85584474       0.00000000
Cu      33.06606245      20.74142921       1.88558447
Cu      33.06606245      18.85584474       3.77116895
Cu      33.06606245      20.74142921       5.65675342
Cu      33.06606245      18.85584474       7.54233789
Cu      33.06606245      20.74142921       9.42792236
Cu      33.06606245      18.85584474      11.31350684
Cu      33.06606245      20.74142921      13.19909131
Cu      33.06606245      18.85584474      15.08467579
Cu      33.06606245      20.74142921      16.97026026
Cu      33.06606245      18.85584474      18.85584474
Cu      33.06606245      20.74142921      20.74142921
Cu      33.06606245      18.85584474      22.62701368
Cu      33.06606245      20.74142921      24.51259815
Cu      33.06606245      18.85584474      26.39818263
Cu      33.06606245      20.74142921      28.28376710
Cu      33.06606245      18.85584474      30.16935158
Cu      33.06606245      20.74142921      32.05493605
Cu      33.06606245      18.85584474      33.94052052
Cu      33.06606245      20.74142921      35.82610499
Cu      33.06606245      22.62701368       0.00000000
Cu      33.06606245      24.51259815       1.88558447
Cu      33.06606245      22.62701368       3.77116895
Cu      33.06606245      24.51259815       5.65675342
Cu      33.06606245      22.62701368       7.54233789
Cu      33.06606245      24.51259815       9.42792236
Cu      33.06606245      22.62701368      11.31350684
Cu      33.06606245      24.51259815      13.19909131
Cu      33.06606245      22.62701368      15.08467579
Cu      33.06606245      24.51259815      16.97026026
Cu      33.06606245      22.62701368      18.85584474
Cu      33.06606245      24.51259815      20.74142921
Cu      33.06606245      22.62701368      22.62701368
Cu      33.06606245      24.51259815      24.51259815
Cu      33.06606245      22.62701368      26.39818263
Cu      33.06606245      24.51259815      28.28376710
Cu      33.06606245      22.62701368      30.16935158
Cu      33.06606245      24.51259815      32.05493605
Cu      33.06606245      22.62701368      33.94052052
Cu      33.06606245      24.51259815      35.82610499
Cu      33.06606245      26.39818263       0.00000000
Cu      33.06606245      28.28376710       1.88558447
Cu      33.06606245      26.39818263       3.77116895
Cu      33.06606245      28.28376710       5.65675342
Cu      33.06606245      26.39818263       7.54233789
Cu      33.06606245      28.28376710       9.42792236
Cu      33.06606245      26.39818263      11.31350684
Cu      33.06606245      28.28376710      13.19909131
Cu      33.06606245      26.39818263      15.08467579
Cu      33.06606245      28.28376710      16.97026026
Cu      33.06606245      26.39818263      18.85584474
Cu      33.06606245      28.28376710      20.74142921
Cu      33.06606245      26.39818263      22.62701368
Cu      33.06606245      28.28376710      24.51259815
Cu      33.06606245      26.39818263      26.39818263
Cu      33.06606245      28.28376710      28.28376710
Cu      33.06606245      26.39818263      30.16935158
Cu      33.06606245      28.28376710      32.05493605
Cu      33.06606245      26.39818263      33.94052052
Cu      33.06606245      28.28376710      35.82610499
Cu      33.06606245      30.16935158       0.00000000
Cu      33.06606245      32.05493605       1.88558447
Cu      33.06606245      30.16935158       3.77116895
Cu      33.06606245      32.05493605       5.65675342
Cu      33.06606245      30.16935158       7.54233789
Cu      33.06606245      32.05493605       9.42792236
Cu      33.06606245      30.16935158      11.31350684
Cu      33.06606245      32.05493605      13.19909131
Cu      33.06606245      30.16935158      15.08467579
Cu      33.06606245      32.05493605      16.97026026
Cu      33.06606245      30.16935158      18.85584474
Cu      33.06606245      32.05493605      20.74142921
Cu      33.06606245      30.16935158      22.62701368
Cu      33.06606245      32.05493605      24.51259815
Cu      33.06606245      30.16935158      26.39818263
Cu      33.06606245      32.05493605      28.28376710
Cu      33.06606245      30.16935158      30.16935158
Cu      33.06606245      32.05493605      32.05493605
Cu      33.06606245      30.16935158      33.94052052
Cu      33.06606245      32.05493605      35.82610499
Cu      33.06606245      33.94052052       0.00000000
Cu      33.06606245      35.82610499       1.88558447
Cu      33.06606245      33.94052052       3.77116895
Cu      33.06606245      35.82610499       5.65675342
Cu      33.06606245      33.94052052       7.54233789
Cu      33.06606245      35.82610499       9.42792236
Cu      33.06606245      33.94052052      11.31350684
Cu      33.06606245      35.82610499      13.19909131
Cu      33.06606245      33.94052052      15.08467579
Cu      33.06606245      35.82610499      16.97026026
Cu      33.06606245      33.94052052      18.85584474
Cu      33.06606245      35.82610499      20.74142921
Cu      33.06606245      33.94052052      22.62701368
Cu      33.06606245      35.82610499      24.51259815
Cu      33.06606245      33.94052052      26.39818263
Cu      33.06606245      35.82610499      28.28376710
Cu      33.06606245      33.94052052      30.16935158
Cu      33.06606245      35.82610499      32.05493605
Cu      33.06606245      33.94052052      33.94052052
Cu      33.06606245      35.82610499      35.82610499
Cu      33.06606245      37.71168947       0.00000000
Cu      33.06606245      39.59727394       1.88558447
Cu      33.06606245      37.71168947       3.77116895
Cu      33.06606245      39.59727394       5.65675342
Cu      33.06606245      37.71168947       7.54233789
Cu      33.06606245      39.59727394       9.42792236
Cu      33.06606245      37.71168947      11.31350684
Cu      33.06606245      39.59727394      13.19909131
Cu      33.06606245      37.71168947      15.08467579
Cu      33.06606245      39.59727394      16.97026026
Cu      33.06606245      37.71168947      18.85584474
Cu      33.06606245      39.59727394      20.74142921
Cu      33.06606245      37.71168947      22.62701368
Cu      33.06606245      39.59727394      24.51259815
Cu      33.06606245      37.71168947      26.39818263
Cu      33.06606245      39.59727394      28.28376710
Cu      33.06606245      37.71168947      30.16935158
Cu      33.06606245      39.59727394      32.05493605
Cu      33.06606245      37.71168947      33.94052052
Cu      33.06606245      39.59727394      35.82610499
Cu      33.06606245      41.48285842       0.00000000
Cu      33.06606245      43.36844289       1.88558447
Cu      33.06606245      41.48285842       3.77116895
Cu      33.06606245      43.36844289       5.65675342
Cu      33.06606245      41.48285842       7.54233789
Cu      33.06606245      43.36844289       9.42792236
Cu      33.06606245      41.48285842      11.31350684
Cu      33.06606245      43.36844289      13.19909131
Cu      33.06606245      41.48285842      15.08467579
Cu      33.06606245      43.36844289      16.97026026
Cu      33.06606245      41.48285842      18.85584474
Cu      33.06606245      43.36844289      20.74142921
Cu      33.06606245      41.48285842      22.62701368
Cu      33.06606245      43.36844289      24.51259815
Cu      33.06606245      41.48285842      26.39818263
Cu      33.06606245      43.36844289      28.28376710
Cu      33.06606245      41.48285842      30.16935158
Cu      33.06606245      43.36844289      32.05493605
Cu      33.06606245      41.48285842      33.94052052
Cu      33.06606245      43.36844289      35.82610499
Cu      33.06606245      45.25402737       0.00000000
Cu      33.06606245      47.13961184       1.88558447
Cu      33.06606245      45.25402737       3.77116895
Cu      33.06606245      47.13961184       5.65675342
Cu      33.06606245      45.25402737       7.54233789
Cu      33.06606245      47.13961184       9.42792236
Cu      33.06606245      45.25402737      11.31350684
Cu      33.06606245      47.13961184      13.19909131
Cu      33.06606245      45.25402737      15.08467579
Cu      33.06606245      47.13961184      16.97026026
Cu      33.06606245      45.25402737      18.85584474
Cu      33.06606245      47.13961184      20.74142921
Cu      33.06606245      45.25402737      22.62701368
Cu      33.06606245      47.13961184      24.51259815
Cu      33.06606245      45.25402737      26.39818263
Cu      33.06606245      47.13961184      28.28376710
Cu      33.06606245      45.25402737      30.16935158
Cu      33.06606245      47.13961184      32.05493605
Cu      33.06606245      45.25402737      33.94052052
Cu      33.06606245      47.13961184      35.82610499
Cu      33.06606245      49.02519631       0.00000000
Cu      33.06606245      50.91078078       1.88558447
Cu      33.06606245      49.02519631       3.77116895
Cu      33.06606245      50.91078078       5.65675342
Cu      33.06606245      49.02519631       7.54233789
Cu      33.06606245      50.91078078       9.42792236
Cu      33.06606245      49.02519631      11.31350684
Cu      33.06606245      50.91078078      13.19909131
Cu      33.06606245      49.02519631      15.08467579
Cu      33.06606245      50.91078078      16.97026026
Cu      33.06606245      49.02519631      18.85584474
Cu      33.06606245      50.91078078      20.74142921
Cu      33.06606245      49.02519631      22.62701368
Cu      33.06606245      50.91078078      24.51259815
Cu      33.06606245      49.02519631      26.39818263
Cu      33.06606245      50.91078078      28.28376710
Cu      33.06606245      49.02519631      30.16935158
Cu      33.06606245      50.91078078      32.05493605
Cu      33.06606245      49.02519631      33.94052052
Cu      33.06606245      50.91078078      35.82610499
Cu      33.06606245      52.79636526       0.00000000
Cu      33.06606245      54.68194973       1.88558447
Cu      33.06606245      52.79636526       3.77116895
Cu      33.06606245      54.68194973       5.65675342
Cu      33.06606245      52.79636526       7.54233789
Cu      33.06606245      54.68194973       9.42792236
Cu      33.06606245      52.79636526      11.31350684
Cu      33.06606245      54.68194973      13.19909131
Cu      33.06606245      52.79636526      15.08467579
Cu      33.06606245      54.68194973      16.97026026
Cu      33.06606245      52.79636526      18.85584474
Cu      33.06606245      54.68194973      20.74142921
Cu      33.06606245      52.79636526      22.62701368
Cu      33.06606245      54.68194973      24.51259815
Cu      33.06606245      52.79636526      26.39818263
Cu      33.06606245      54.68194973      28.28376710
Cu      33.06606245      52.79636526      30.16935158
Cu      33.06606245      54.68194973      32.05493605
Cu      33.06606245      52.79636526      33.94052052
Cu      33.06606245      54.68194973      35.82610499
Cu      33.06606245      56.56753421       0.00000000
Cu      33.06606245      58.45311868       1.88558447
Cu      33.06606245      56.56753421       3.77116895
Cu      33.06606245      58.45311868       5.65675342
Cu      33.06606245      56.56753421       7.54233789
Cu      33.06606245      58.45311868       9.42792236
Cu      33.06606245      56.56753421      11.31350684
Cu      33.06606245      58.45311868      13.19909131
Cu      33.06606245      56.56753421      15.08467579
Cu      33.06606245      58.45311868      16.97026026
Cu      33.06606245      56.56753421      18.85584474
Cu      33.06606245      58.45311868      20.74142921
Cu      33.06606245      56.56753421      22.62701368
Cu      33.06606245      58.45311868      24.51259815
Cu      33.06606245      56.56753421      26.39818263
Cu      33.06606245      58.45311868      28.28376710
Cu      33.06606245      56.56753421      30.16935158
Cu      33.06606245      58.45311868      32.05493605
Cu      33.06606245      56.56753421      33.94052052
Cu      33.06606245      58.45311868      35.82610499
Cu      36.74006939       0.00000000       0.00000000
Cu      36.74006939       1.88558447       1.88558447
Cu      36.74006939       0.00000000       3.77116895
Cu      36.74006939       1.88558447       5.65675342
Cu      36.74006939       0.00000000       7.54233789
Cu      36.74006939       1.88558447       9.42792236
Cu      36.74006939       0.00000000      11.31350684
Cu      36.74006939       1.88558447      13.19909131
Cu      36.74006939       0.00000000      15.08467579
Cu      36.74006939       1.88558447      16.97026026
Cu      36.74006939       0.00000000      18.85584474
Cu      36.74006939       1.88558447      20.74142921
Cu      36.74006939       0.00000000      22.62701368
Cu      36.74006939       1.88558447      24.51259815
Cu      36.74006939       0.00000000      26.39818263
Cu      36.74006939       1.88558447      28.28376710
Cu      36.74006939       0.00000000      30.16935158
Cu      36.74006939       1.88558447      32.05493605
Cu      36.74006939       0.00000000      33.94052052
Cu      36.74006939       1.88558447      35.82610499
Cu      36.74006939       3.77116895       0.00000000
Cu      36.74006939       5.65675342       1.88558447
Cu      36.74006939       3.77116895       3.77116895
Cu      36.74006939       5.65675342       5.65675342
Cu      36.74006939       3.77116895       7.54233789
Cu      36.74006939       5.65675342       9.42792236
Cu      36.74006939       3.77116895      11.31350684
Cu      36.74006939       5.65675342      13.19909131
Cu      36.74006939       3.77116895      15.08467579
Cu      36.74006939       5.65675342      16.97026026
Cu      36.74006939       3.77116895      18.85584474
Cu      36.74006939       5.65675342      20.74142921
Cu      36.74006939       3.77116895      22.62701368
Cu      36.74006939       5.65675342      24.51259815
Cu      36.74006939       3.77116895      26.39818263
Cu      36.74006939       5.65675342      28.28376710
Cu      36.74006939       3.77116895      30.16935158
Cu      36.74006939       5.65675342      32.05493605
Cu      36.74006939       3.77116895      33.94052052
Cu      36.74006939       5.65675342      35.82610499
Cu      36.74006939       7.54233789       0.00000000
Cu      36.74006939       9.42792236       1.88558447
Cu      36.74006939       7.54233789       3.77116895
Cu      36.74006939       9.42792236       5.65675342
Cu      36.74006939       7.54233789       7.54233789
Cu      36.74006939       9.42792236       9.42792236
Cu      36.74006939       7.54233789      11.31350684
Cu      36.74006939       9.42792236      13.19909131
Cu      36.74006939       7.54233789      15.08467579
Cu      36.74006939       9.42792236      16.97026026
Cu      36.74006939       7.54233789      18.85584474
Cu      36.74006939       9.42792236      20.74142921
Cu      36.74006939       7.54233789      22.62701368
Cu      36.74006939       9.42792236      24.51259815
Cu      36.74006939       7.54233789      26.39818263
Cu      36.74006939       9.42792236      28.28376710
Cu      36.74006939       7.54233789      30.16935158
Cu      36.74006939       9.42792236      32.05493605
Cu      36.74006939       7.54233789      33.94052052
Cu      36.74006939       9.42792236      35.82610499
Cu      36.74006939      11.31350684       0.00000000
Cu      36.74006939      13.19909131       1.88558447
Cu      36.74006939      11.31350684       3.77116895
Cu      36.74006939      13.19909131       5.65675342
Cu      36.74006939      11.31350684       7.54233789
Cu      36.74006939      13.19909131       9.42792236
Cu      36.74006939      11.31350684      11.31350684
Cu      36.74006939      13.19909131      13.19909131
Cu      36.74006939      11.31350684      15.08467579
Cu      36.74006939      13.19909131      16.97026026
Cu      36.74006939      11.31350684      18.85584474
Cu      36.74006939      13.19909131      20.74142921
Cu      36.74006939      11.31350684      22.62701368
Cu      36.74006939      13.19909131      24.51259815
Cu      36.74006939      11.31350684      26.39818263
Cu      36.74006939      13.19909131      28.28376710
Cu      36.74006939      11.31350684      30.16935158
Cu      36.74006939      13.19909131      32.05493605
Cu      36.74006939      11.31350684      33.94052052
Cu      36.74006939      13.19909131      35.82610499
Cu      36.74006939      15.08467579       0.00000000
Cu      36.74006939      16.97026026       1.88558447
Cu      36.74006939      15.08467579       3.77116895
Cu      36.74006939      16.97026026       5.65675342
Cu      36.74006939      15.08467579       7.54233789
Cu      36.74006939      16.97026026       9.42792236
Cu      36.74006939      15.08467579      11.31350684
Cu      36.74006939      16.97026026      13.19909131
Cu      36.74006939      15.08467579      15.08467579
Cu      36.74006939      16.97026026      16.97026026
Cu      36.74006939      15.08467579      18.85584474
Cu      36.74006939      16.97026026      20.74142921
Cu      36.74006939      15.08467579      22.62701368
Cu      36.74006939      16.97026026      24.51259815
Cu      36.74006939      15.08467579      26.39818263
Cu      36.74006939      16.97026026      28.28376710
Cu      36.74006939      15.08467579      30.16935158
Cu      36.74006939      16.97026026      32.05493605
Cu      36.74006939      15.08467579      33.94052052
Cu      36.74006939      16.97026026      35.82610499
Cu      36.74006939      18.85584474       0.00000000
Cu      36.74006939      20.74142921       1.88558447
Cu      36.74006939      18.85584474       3.77116895
Cu      36.74006939      20.74142921       5.65675342
Cu      36.74006939      18.85584474       7.54233789
Cu      36.74006939      20.74142921       9.42792236
Cu      36.74006939      18.85584474      11.31350684
Cu      36.74006939      20.74142921      13.19909131
Cu      36.74006939      18.85584474      15.08467579
Cu      36.74006939      20.74142921      16.97026026
Cu      36.74006939      18.85584474      18.85584474
Cu      36.74006939      20.74142921      20.74142921
Cu      36.74006939      18.85584474      22.62701368
Cu      36.74006939      20.74142921      24.51259815
Cu      36.74006939      18.85584474      26.39818263
Cu      36.74006939      20.74142921      28.28376710
Cu      36.74006939      18.85584474      30.16935158
Cu      36.74006939      20.74142921      32.05493605
Cu      36.74006939      18.85584474      33.94052052
Cu      36.74006939      20.74142921      35.82610499
Cu      36.74006939      22.62701368       0.00000000
Cu      36.74006939      24.51259815       1.88558447
Cu      36.74006939      22.62701368       3.77116895
Cu      36.74006939      24.51259815       5.65675342
Cu      36.74006939      22.62701368       7.54233789
Cu      36.74006939      24.51259815       9.42792236
Cu      36.74006939      22.62701368      11.31350684
Cu      36.74006939      24.51259815      13.19909131
Cu      36.74006939      22.62701368      15.08467579
Cu      36.74006939      24.51259815      16.97026026
Cu      36.74006939      22.62701368      18.85584474
Cu      36.74006939      24.51259815      20.74142921
Cu      36.74006939      22.62701368      22.62701368
Cu      36.74006939      24.51259815      24.51259815
Cu      36.74006939      22.62701368      26.39818263
Cu      36.74006939      24.51259815      28.28376710
Cu      36.74006939      22.62701368      30.16935158
Cu      36.74006939      24.51259815      32.05493605
Cu      36.74006939      22.62701368      33.94052052
Cu      36.74006939      24.51259815      35.82610499
Cu      36.74006939      26.39818263       0.00000000
Cu      36.74006939      28.28376710       1.88558447
Cu      36.74006939      26.39818263       3.77116895
Cu      36.74006939      28.28376710       5.65675342
Cu      36.74006939      26.39818263       7.54233789
Cu      36.74006939      28.28376710       9.42792236
Cu      36.74006939      26.39818263      11.31350684
Cu      36.74006939      28.28376710      13.19909131
Cu      36.74006939      26.39818263      15.08467579
Cu      36.74006939      28.28376710      16.97026026
Cu      36.74006939      26.39818263      18.85584474
Cu      36.74006939      28.28376710      20.74142921
Cu      36.74006939      26.39818263      22.62701368
Cu      36.74006939      28.28376710      24.51259815
Cu      36.74006939      26.39818263      26.39818263
Cu      36.74006939      28.28376710      28.28376710
Cu      36.74006939      26.39818263      30.16935158
Cu      36.74006939      28.28376710      32.05493605
Cu      36.74006939      26.39818263      33.94052052
Cu      36.74006939      28.28376710      35.82610499
Cu      36.74006939      30.16935158       0.00000000
Cu      36.74006939      32.05493605       1.88558447
Cu      36.74006939      30.16935158       3.77116895
Cu      36.74006939      32.05493605       5.65675342
Cu      36.74006939      30.16935158       7.54233789
Cu      36.74006939      32.05493605       9.42792236
Cu      36.74006939      30.16935158      11.31350684
Cu      36.74006939      32.05493605      13.19909131
Cu      36.74006939      30.16935158      15.08467579
Cu      36.74006939      32.05493605      16.97026026
Cu      36.74006939      30.16935158      18.85584474
Cu      36.74006939      32.05493605      20.74142921
Cu      36.74006939      30.16935158      22.62701368
Cu      36.74006939      32.05493605      24.51259815
Cu      36.74006939      30.16935158      26.39818263
Cu      36.74006939      32.05493605      28.28376710
Cu      36.74006939      30.16935158      30.16935158
Cu      36.74006939      32.05493605      32.05493605
Cu      36.74006939      30.16935158      33.94052052
Cu      36.74006939      32.05493605      35.82610499
Cu      36.74006939      33.94052052       0.00000000
Cu      36.74006939      35.82610499       1.88558447
Cu      36.74006939      33.94052052       3.77116895
Cu      36.74006939      35.82610499       5.65675342
Cu      36.74006939      33.94052052       7.54233789
Cu      36.74006939      35.82610499       9.42792236
Cu      36.74006939      33.94052052      11.31350684
Cu      36.74006939      35.82610499      13.19909131
Cu      36.74006939      33.94052052      15.08467579
Cu      36.74006939      35.82610499      16.97026026
Cu      36.74006939      33.94052052      18.85584474
Cu      36.74006939      35.82610499      20.74142921
Cu      36.74006939      33.94052052      22.62701368
Cu      36.74006939      35.82610499      24.51259815
Cu      36.74006939      33.94052052      26.39818263
Cu      36.74006939      35.82610499      28.28376710
Cu      36.74006939      33.94052052      30.16935158
Cu      36.74006939      35.82610499      32.05493605
Cu      36.74006939      33.94052052      33.94052052
Cu      36.74006939      35.82610499      35.82610499
Cu      36.74006939      37.71168947       0.00000000
Cu      36.74006939      39.59727394       1.88558447
Cu      36.74006939      37.71168947       3.77116895
Cu      36.74006939      39.59727394       5.65675342
Cu      36.74006939      37.71168947       7.54233789
Cu      36.74006939      39.59727394       9.42792236
Cu      36.74006939      37.71168947      11.31350684
Cu      36.74006939      39.59727394      13.19909131
Cu      36.74006939      37.71168947      15.08467579
Cu      36.74006939      39.59727394      16.97026026
Cu      36.74006939      37.71168947      18.85584474
Cu      36.74006939      39.59727394      20.74142921
Cu      36.74006939      37.71168947      22.62701368
Cu      36.74006939      39.59727394      24.51259815
Cu      36.74006939      37.71168947      26.39818263
Cu      36.74006939      39.59727394      28.28376710
Cu      36.74006939      37.71168947      30.16935158
Cu      36.74006939      39.59727394      32.05493605
Cu      36.74006939      37.71168947      33.94052052
Cu      36.74006939      39.59727394      35.82610499
Cu      36.74006939      41.48285842       0.00000000
Cu      36.74006939      43.36844289       1.88558447
Cu      36.74006939      41.48285842       3.77116895
Cu      36.74006939      43.36844289       5.65675342
Cu      36.74006939      41.48285842       7.54233789
Cu      36.74006939      43.36844289       9.42792236
Cu      36.74006939      41.48285842      11.31350684
Cu      36.74006939      43.36844289      13.19909131
Cu      36.74006939      41.48285842      15.08467579
Cu      36.74006939      43.36844289      16.97026026
Cu      36.74006939      41.48285842      18.85584474
Cu      36.74006939      43.36844289      20.74142921
Cu      36.74006939      41.48285842      22.62701368
Cu      36.74006939      43.36844289      24.51259815
Cu      36.74006939      41.48285842      26.39818263
Cu      36.74006939      43.36844289      28.28376710
Cu      36.74006939      41.48285842      30.16935158
Cu      36.74006939      43.36844289      32.05493605
Cu      36.74006939      41.48285842      33.94052052
Cu      36.74006939      43.36844289      35.82610499
Cu      36.74006939      45.25402737       0.00000000
Cu      36.74006939      47.13961184       1.88558447
Cu      36.74006939      45.25402737       3.77116895
Cu      36.74006939      47.13961184       5.65675342
Cu      36.74006939      45.25402737       7.54233789
Cu      36.74006939      47.13961184       9.42792236
Cu      36.74006939      45.25402737      11.31350684
Cu      36.74006939      47.13961184      13.19909131
Cu      36.74006939      45.25402737      15.08467579
Cu      36.74006939      47.13961184      16.97026026
Cu      36.74006939      45.25402737      18.85584474
Cu      36.74006939      47.13961184      20.74142921
Cu      36.74006939      45.25402737      22.62701368
Cu      36.74006939      47.13961184      24.51259815
Cu      36.74006939      45.25402737      26.39818263
Cu      36.74006939      47.13961184      28.28376710
Cu      36.74006939      45.25402737      30.16935158
Cu      36.74006939      47.13961184      32.05493605
Cu      36.74006939      45.25402737      33.94052052
Cu      36.74006939      47.13961184      35.82610499
Cu      36.74006939      49.02519631       0.00000000
Cu      36.74006939      50.91078078       1.88558447
Cu      36.74006939      49.02519631       3.77116895
Cu      36.74006939      50.91078078       5.65675342
Cu      36.74006939      49.02519631       7.54233789
Cu      36.74006939      50.91078078       9.42792236
Cu      36.74006939      49.02519631      11.31350684
Cu      36.74006939      50.91078078      13.19909131
Cu      36.74006939      49.02519631      15.08467579
Cu      36.74006939      50.91078078      16.97026026
Cu      36.74006939      49.02519631      18.85584474
Cu      36.74006939      50.91078078      20.74142921
Cu      36.74006939      49.02519631      22.62701368
Cu      36.74006939      50.91078078      24.51259815
Cu      36.74006939      49.02519631      26.39818263
Cu      36.74006939      50.91078078      28.28376710
Cu      36.74006939      49.02519631      30.16935158
Cu      36.74006939      50.91078078      32.05493605
Cu      36.74006939      49.02519631      33.94052052
Cu      36.74006939      50.91078078      35.82610499
Cu      36.74006939      52.79636526       0.00000000
Cu      36.74006939      54.68194973       1.88558447
Cu      36.74006939      52.79636526       3.77116895
Cu      36.74006939      54.68194973       5.65675342
Cu      36.74006939      52.79636526       7.54233789
Cu      36.74006939      54.68194973       9.42792236
Cu      36.74006939      52.79636526      11.31350684
Cu      36.74006939      54.68194973      13.19909131
Cu      36.74006939      52.79636526      15.08467579
Cu      36.74006939      54.68194973      16.97026026
Cu      36.74006939      52.79636526      18.85584474
Cu      36.74006939      54.68194973      20.74142921
Cu      36.74006939      52.79636526      22.62701368
Cu      36.74006939      54.68194973      24.51259815
Cu      36.74006939      52.79636526      26.39818263
Cu      36.74006939      54.68194973      28.28376710
Cu      36.74006939      52.79636526      30.16935158
Cu      36.74006939      54.68194973      32.05493605
Cu      36.74006939      52.79636526      33.94052052
Cu      36.74006939      54.68194973      35.82610499
Cu      36.74006939      56.56753421       0.00000000
Cu      36.74006939      58.45311868       1.88558447
Cu      36.74006939      56.56753421       3.77116895
Cu      36.74006939      58.45311868       5.65675342
Cu      36.74006939      56.56753421       7.54233789
Cu      36.74006939      58.45311868       9.42792236
Cu      36.74006939      56.56753421      11.31350684
Cu      36.74006939      58.45311868      13.19909131
Cu      36.74006939      56.56753421      15.08467579
Cu      36.74006939      58.45311868      16.97026026
Cu      36.74006939      56.56753421      18.85584474
Cu      36.74006939      58.45311868      20.74142921
Cu      36.74006939      56.56753421      22.62701368
Cu      36.74006939      58.45311868      24.51259815
Cu      36.74006939      56.56753421      26.39818263
Cu      36.74006939      58.45311868      28.28376710
Cu      36.74006939      56.56753421      30.16935158
Cu      36.74006939      58.45311868      32.05493605
Cu      36.74006939      56.56753421      33.94052052
Cu      36.74006939      58.45311868      35.82610499
Cu      40.41407633       0.00000000       0.00000000
Cu      40.41407633       1.88558447       1.88558447
Cu      40.41407633       0.00000000       3.77116895
Cu      40.41407633       1.88558447       5.65675342
Cu      40.41407633       0.00000000       7.54233789
Cu      40.41407633       1.88558447       9.42792236
Cu      40.41407633       0.00000000      11.31350684
Cu      40.41407633       1.88558447      13.19909131
Cu      40.41407633       0.00000000      15.08467579
Cu      40.41407633       1.88558447      16.97026026
Cu      40.41407633       0.00000000      18.85584474
Cu      40.41407633       1.88558447      20.74142921
Cu      40.41407633       0.00000000      22.62701368
Cu      40.41407633       1.88558447      24.51259815
Cu      40.41407633       0.00000000      26.39818263
Cu      40.41407633       1.88558447      28.28376710
Cu      40.41407633       0.00000000      30.16935158
Cu      40.41407633       1.88558447      32.05493605
Cu      40.41407633       0.00000000      33.94052052
Cu      40.41407633       1.88558447      35.82610499
Cu      40.41407633       3.77116895       0.00000000
Cu      40.41407633       5.65675342       1.88558447
Cu      40.41407633       3.77116895       3.77116895
Cu      40.41407633       5.65675342       5.65675342
Cu      40.41407633       3.77116895       7.54233789
Cu      40.41407633       5.65675342       9.42792236
Cu      40.41407633       3.77116895      11.31350684
Cu      40.41407633       5.65675342      13.19909131
Cu      40.41407633       3.77116895      15.08467579
Cu      40.41407633       5.65675342      16.97026026
Cu      40.41407633       3.77116895      18.85584474
Cu      40.41407633       5.65675342      20.74142921
Cu      40.41407633       3.77116895      22.62701368
Cu      40.41407633       5.65675342      24.51259815
Cu      40.41407633       3.77116895      26.39818263
Cu      40.41407633       5.65675342      28.28376710
Cu      40.41407633       3.77116895      30.16935158
Cu      40.41407633       5.65675342      32.05493605
Cu      40.41407633       3.77116895      33.94052052
Cu      40.41407633       5.65675342      35.82610499
Cu      40.41407633       7.54233789       0.00000000
Cu      40.41407633       9.42792236       1.88558447
Cu      40.41407633       7.54233789       3.77116895
Cu      40.41407633       9.42792236       5.65675342
Cu      40.41407633       7.54233789       7.54233789
Cu      40.41407633       9.42792236       9.42792236
Cu      40.41407633       7.54233789      11.31350684
Cu      40.41407633       9.42792236      13.19909131
Cu      40.41407633       7.54233789      15.08467579
Cu      40.41407633       9.42792236      16.97026026
Cu      40.41407633       7.54233789      18.85584474
Cu      40.41407633       9.42792236      20.74142921
Cu      40.41407633       7.54233789      22.62701368
Cu      40.41407633       9.42792236      24.51259815
Cu      40.41407633       7.54233789      26.39818263
Cu      40.41407633       9.42792236      28.28376710
Cu      40.41407633       7.54233789      30.16935158
Cu      40.41407633       9.42792236      32.05493605
Cu      40.41407633       7.54233789      33.94052052
Cu      40.41407633       9.42792236      35.82610499
Cu      40.41407633      11.31350684       0.00000000
Cu      40.41407633      13.19909131       1.88558447
Cu      40.41407633      11.31350684       3.77116895
Cu      40.41407633      13.19909131       5.65675342
Cu      40.41407633      11.31350684       7.54233789
Cu      40.41407633      13.19909131       9.42792236
Cu      40.41407633      11.31350684      11.31350684
Cu      40.41407633      13.19909131      13.19909131
Cu      40.41407633      11.31350684      15.08467579
Cu      40.41407633      13.19909131      16.97026026
Cu      40.41407633      11.31350684      18.85584474
Cu      40.41407633      13.19909131      20.74142921
Cu      40.41407633      11.31350684      22.62701368
Cu      40.41407633      13.19909131      24.51259815
Cu      40.41407633      11.31350684      26.39818263
Cu      40.41407633      13.19909131      28.28376710
Cu      40.41407633      11.31350684      30.16935158
Cu      40.41407633      13.19909131      32.05493605
Cu      40.41407633      11.31350684      33.94052052
Cu      40.41407633      13.19909131      35.82610499
Cu      40.41407633      15.08467579       0.00000000
Cu      40.41407633      16.97026026       1.88558447
Cu      40.41407633      15.08467579       3.77116895
Cu      40.41407633      16.97026026       5.65675342
Cu      40.41407633      15.08467579       7.54233789
Cu      40.41407633      16.97026026       9.42792236
Cu      40.41407633      15.08467579      11.31350684
Cu      40.41407633      16.97026026      13.19909131
Cu      40.41407633      15.08467579      15.08467579
Cu      40.41407633      16.97026026      16.97026026
Cu      40.41407633      15.08467579      18.85584474
Cu      40.41407633      16.97026026      20.74142921
Cu      40.41407633      15.08467579      22.62701368
Cu      40.41407633      16.97026026      24.51259815
Cu      40.41407633      15.08467579      26.39818263
Cu      40.41407633      16.97026026      28.28376710
Cu      40.41407633      15.08467579      30.16935158
Cu      40.41407633      16.97026026      32.05493605
Cu      40.41407633      15.08467579      33.94052052
Cu      40.41407633      16.97026026      35.82610499
Cu      40.41407633      18.85584474       0.00000000
Cu      40.41407633      20.74142921       1.88558447
Cu      40.41407633      18.85584474       3.77116895
Cu      40.41407633      20.74142921       5.65675342
Cu      40.41407633      18.85584474       7.54233789
Cu      40.41407633      20.74142921       9.42792236
Cu      40.41407633      18.85584474      11.31350684
Cu      40.41407633      20.74142921      13.19909131
Cu      40.41407633      18.85584474      15.08467579
Cu      40.41407633      20.74142921      16.97026026
Cu      40.41407633      18.85584474      18.85584474
Cu      40.41407633      20.74142921      20.74142921
Cu      40.41407633      18.85584474      22.62701368
Cu      40.41407633      20.74142921      24.51259815
Cu      40.41407633      18.85584474      26.39818263
Cu      40.41407633      20.74142921      28.28376710
Cu      40.41407633      18.85584474      30.16935158
Cu      40.41407633      20.74142921      32.05493605
Cu      40.41407633      18.85584474      33.94052052
Cu      40.41407633      20.74142921      35.82610499
Cu      40.41407633      22.62701368       0.00000000
Cu      40.41407633      24.51259815       1.88558447
Cu      40.41407633      22.62701368       3.77116895
Cu      40.41407633      24.51259815       5.65675342
Cu      40.41407633      22.62701368       7.54233789
Cu      40.41407633      24.51259815       9.42792236
Cu      40.41407633      22.62701368      11.31350684
Cu      40.41407633      24.51259815      13.19909131
Cu      40.41407633      22.62701368      15.08467579
Cu      40.41407633      24.51259815      16.97026026
Cu      40.41407633      22.62701368      18.85584474
Cu      40.41407633      24.51259815      20.74142921
Cu      40.41407633      22.62701368      22.62701368
Cu      40.41407633      24.51259815      24.51259815
Cu      40.41407633      22.62701368      26.39818263
Cu      40.41407633      24.51259815      28.28376710
Cu      40.41407633      22.62701368      30.16935158
Cu      40.41407633      24.51259815      32.05493605
Cu      40.41407633      22.62701368      33.94052052
Cu      40.41407633      24.51259815      35.82610499
Cu      40.41407633      26.39818263       0.00000000
Cu      40.41407633      28.28376710       1.88558447
Cu      40.41407633      26.39818263       3.77116895
Cu      40.41407633      28.28376710       5.65675342
Cu      40.41407633      26.39818263       7.54233789
Cu      40.41407633      28.28376710       9.42792236
Cu      40.41407633      26.39818263      11.31350684
Cu      40.41407633      28.28376710      13.19909131
Cu      40.41407633      26.39818263      15.08467579
Cu      40.41407633      28.28376710      16.97026026
Cu      40.41407633      26.39818263      18.85584474
Cu      40.41407633      28.28376710      20.74142921
Cu      40.41407633      26.39818263      22.62701368
Cu      40.41407633      28.28376710      24.51259815
Cu      40.41407633      26.39818263      26.39818263
Cu      40.41407633      28.28376710      28.28376710
Cu      40.41407633      26.39818263      30.16935158
Cu      40.41407633      28.28376710      32.05493605
Cu      40.41407633      26.39818263      33.94052052
Cu      40.41407633      28.28376710      35.82610499
Cu      40.41407633      30.16935158       0.00000000
Cu      40.41407633      32.05493605       1.88558447
Cu      40.41407633      30.16935158       3.77116895
Cu      40.41407633      32.05493605       5.65675342
Cu      40.41407633      30.16935158       7.54233789
Cu      40.41407633      32.05493605       9.42792236
Cu      40.41407633      30.16935158      11.31350684
Cu      40.41407633      32.05493605      13.19909131
Cu      40.41407633      30.16935158      15.08467579
Cu      40.41407633      32.05493605      16.97026026
Cu      40.41407633      30.16935158      18.85584474
Cu      40.41407633      32.05493605      20.74142921
Cu      40.41407633      30.16935158      22.62701368
Cu      40.41407633      32.05493605      24.51259815
Cu      40.41407633      30.16935158      26.39818263
Cu      40.41407633      32.05493605      28.28376710
Cu      40.41407633      30.16935158      30.16935158
Cu      40.41407633      32.05493605      32.05493605
Cu      40.41407633      30.16935158      33.94052052
Cu      40.41407633      32.05493605      35.82610499
Cu      40.41407633      33.94052052       0.00000000
Cu      40.41407633      35.82610499       1.88558447
Cu      40.41407633      33.94052052       3.77116895
Cu      40.41407633      35.82610499       5.65675342
Cu      40.41407633      33.94052052       7.54233789
Cu      40.41407633      35.82610499       9.42792236
Cu      40.41407633      33.94052052      11.31350684
Cu      40.41407633      35.82610499      13.19909131
Cu      40.41407633      33.94052052      15.08467579
Cu      40.41407633      35.82610499      16.97026026
Cu      40.41407633      33.94052052      18.85584474
Cu      40.41407633      35.82610499      20.74142921
Cu      40.41407633      33.94052052      22.62701368
Cu      40.41407633      35.82610499      24.51259815
Cu      40.41407633      33.94052052      26.39818263
Cu      40.41407633      35.82610499      28.28376710
Cu      40.41407633      33.94052052      30.16935158
Cu      40.41407633      35.82610499      32.05493605
Cu      40.41407633      33.94052052      33.94052052
Cu      40.41407633      35.82610499      35.82610499
Cu      40.41407633      37.71168947       0.00000000
Cu      40.41407633      39.59727394       1.88558447
Cu      40.41407633      37.71168947       3.77116895
Cu      40.41407633      39.59727394       5.65675342
Cu      40.41407633      37.71168947       7.54233789
Cu      40.41407633      39.59727394       9.42792236
Cu      40.41407633      37.71168947      11.31350684
Cu      40.41407633      39.59727394      13.19909131
Cu      40.41407633      37.71168947      15.08467579
Cu      40.41407633      39.59727394      16.97026026
Cu      40.41407633      37.71168947      18.85584474
Cu      40.41407633      39.59727394      20.74142921
Cu      40.41407633      37.71168947      22.62701368
Cu      40.41407633      39.59727394      24.51259815
Cu      40.41407633      37.71168947      26.39818263
Cu      40.41407633      39.59727394      28.28376710
Cu      40.41407633      37.71168947      30.16935158
Cu      40.41407633      39.59727394      32.05493605
Cu      40.41407633      37.71168947      33.94052052
Cu      40.41407633      39.59727394      35.82610499
Cu      40.41407633      41.48285842       0.00000000
Cu      40.41407633      43.36844289       1.88558447
Cu      40.41407633      41.48285842       3.77116895
Cu      40.41407633      43.36844289       5.65675342
Cu      40.41407633      41.48285842       7.54233789
Cu      40.41407633      43.36844289       9.42792236
Cu      40.41407633      41.48285842      11.31350684
Cu      40.41407633      43.36844289      13.19909131
Cu      40.41407633      41.48285842      15.08467579
Cu      40.41407633      43.36844289      16.97026026
Cu      40.41407633      41.48285842      18.85584474
Cu      40.41407633      43.36844289      20.74142921
Cu      40.41407633      41.48285842      22.62701368
Cu      40.41407633      43.36844289      24.51259815
Cu      40.41407633      41.48285842      26.39818263
Cu      40.41407633      43.36844289      28.28376710
Cu      40.41407633      41.48285842      30.16935158
Cu      40.41407633      43.36844289      32.05493605
Cu      40.41407633      41.48285842      33.94052052
Cu      40.41407633      43.36844289      35.82610499
Cu      40.41407633      45.25402737       0.00000000
Cu      40.41407633      47.13961184       1.88558447
Cu      40.41407633      45.25402737       3.77116895
Cu      40.41407633      47.13961184       5.65675342
Cu      40.41407633      45.25402737       7.54233789
Cu      40.41407633      47.13961184       9.42792236
Cu      40.41407633      45.25402737      11.31350684
Cu      40.41407633      47.13961184      13.19909131
Cu      40.41407633      45.25402737      15.08467579
Cu      40.41407633      47.13961184      16.97026026
Cu      40.41407633      45.25402737      18.85584474
Cu      40.41407633      47.13961184      20.74142921
Cu      40.41407633      45.25402737      22.62701368
Cu      40.41407633      47.13961184      24.51259815
Cu      40.41407633      45.25402737      26.39818263
Cu      40.41407633      47.13961184      28.28376710
Cu      40.41407633      45.25402737      30.16935158
Cu      40.41407633      47.13961184      32.05493605
Cu      40.41407633      45.25402737      33.94052052
Cu      40.41407633      47.13961184      35.82610499
Cu      40.41407633      49.02519631       0.00000000
Cu      40.41407633      50.91078078       1.88558447
Cu      40.41407633      49.02519631       3.77116895
Cu      40.41407633      50.91078078       5.65675342
Cu      40.41407633      49.02519631       7.54233789
Cu      40.41407633      50.91078078       9.42792236
Cu      40.41407633      49.02519631      11.31350684
Cu      40.41407633      50.91078078      13.19909131
Cu      40.41407633      49.02519631      15.08467579
Cu      40.41407633      50.91078078      16.97026026
Cu      40.41407633      49.02519631      18.85584474
Cu      40.41407633      50.91078078      20.74142921
Cu      40.41407633      49.02519631      22.62701368
Cu      40.41407633      50.91078078      24.51259815
Cu      40.41407633      49.02519631      26.39818263
Cu      40.41407633      50.91078078      28.28376710
Cu      40.41407633      49.02519631      30.16935158
Cu      40.41407633      50.91078078      32.05493605
Cu      40.41407633      49.02519631      33.94052052
Cu      40.41407633      50.91078078      35.82610499
Cu      40.41407633      52.79636526       0.00000000
Cu      40.41407633      54.68194973       1.88558447
Cu      40.41407633      52.79636526       3.77116895
Cu      40.41407633      54.68194973       5.65675342
Cu      40.41407633      52.79636526       7.54233789
Cu      40.41407633      54.68194973       9.42792236
Cu      40.41407633      52.79636526      11.31350684
Cu      40.41407633      54.68194973      13.19909131
Cu      40.41407633      52.79636526      15.08467579
Cu      40.41407633      54.68194973      16.97026026
Cu      40.41407633      52.79636526      18.85584474
Cu      40.41407633      54.68194973      20.74142921
Cu      40.41407633      52.79636526      22.62701368
Cu      40.41407633      54.68194973      24.51259815
Cu      40.41407633      52.79636526      26.39818263
Cu      40.41407633      54.68194973      28.28376710
Cu      40.41407633      52.79636526      30.16935158
Cu      40.41407633      54.68194973      32.05493605
Cu      40.41407633      52.79636526      33.94052052
Cu      40.41407633      54.68194973      35.82610499
Cu      40.41407633      56.56753421       0.00000000
Cu      40.41407633      58.45311868       1.88558447
Cu      40.41407633      56.56753421       3.77116895
Cu      40.41407633      58.45311868       5.65675342
Cu      40.41407633      56.56753421       7.54233789
Cu      40.41407633      58.45311868       9.42792236
Cu      40.41407633      56.56753421      11.31350684
Cu      40.41407633      58.45311868      13.19909131
Cu      40.41407633      56.56753421      15.08467579
Cu      40.41407633      58.45311868      16.97026026
Cu      40.41407633      56.56753421      18.85584474
Cu      40.41407633      58.45311868      20.74142921
Cu      40.41407633      56.56753421      22.62701368
Cu      40.41407633      58.45311868      24.51259815
Cu      40.41407633      56.56753421      26.39818263
Cu      40.41407633      58.45311868      28.28376710
Cu      40.41407633      56.56753421      30.16935158
Cu      40.41407633      58.45311868      32.05493605
Cu      40.41407633      56.56753421      33.94052052
Cu      40.41407633      58.45311868      35.82610499
Cu      44.08808327       0.00000000       0.00000000
Cu      44.08808327       1.88558447       1.88558447
Cu      44.08808327       0.00000000       3.77116895
Cu      44.08808327       1.88558447       5.65675342
Cu      44.08808327       0.00000000       7.54233789
Cu      44.08808327       1.88558447       9.42792236
Cu      44.08808327       0.00000000      11.31350684
Cu      44.08808327       1.88558447      13.19909131
Cu      44.08808327       0.00000000      15.08467579
Cu      44.08808327       1.88558447      16.97026026
Cu      44.08808327       0.00000000      18.85584474
Cu      44.08808327       1.88558447      20.74142921
Cu      44.08808327       0.00000000      22.62701368
Cu      44.08808327       1.88558447      24.51259815
Cu      44.08808327       0.00000000      26.39818263
Cu      44.08808327       1.88558447      28.28376710
Cu      44.08808327       0.00000000      30.16935158
Cu      44.08808327       1.88558447      32.05493605
Cu      44.08808327       0.00000000      33.94052052
Cu      44.08808327       1.88558447      35.82610499
Cu      44.08808327       3.77116895       0.00000000
Cu      44.08808327       5.65675342       1.88558447
Cu      44.08808327       3.77116895       3.77116895
Cu      44.08808327       5.65675342       5.65675342
Cu      44.08808327       3.77116895       7.54233789
Cu      44.08808327       5.65675342       9.42792236
Cu      44.08808327       3.77116895      11.31350684
Cu      44.08808327       5.65675342      13.19909131
Cu      44.08808327       3.77116895      15.08467579
Cu      44.08808327       5.65675342      16.97026026
Cu      44.08808327       3.77116895      18.85584474
Cu      44.08808327       5.65675342      20.74142921
Cu      44.08808327       3.77116895      22.62701368
Cu      44.08808327       5.65675342      24.51259815
Cu      44.08808327       3.77116895      26.39818263
Cu      44.08808327       5.65675342      28.28376710
Cu      44.08808327       3.77116895      30.16935158
Cu      44.08808327       5.65675342      32.05493605
Cu      44.08808327       3.77116895      33.94052052
Cu      44.08808327       5.65675342      35.82610499
Cu      44.08808327       7.54233789       0.00000000
Cu      44.08808327       9.42792236       1.88558447
Cu      44.08808327       7.54233789       3.77116895
Cu      44.08808327       9.42792236       5.65675342
Cu      44.08808327       7.54233789       7.54233789
Cu      44.08808327       9.42792236       9.42792236
Cu      44.08808327       7.54233789      11.31350684
Cu      44.08808327       9.42792236      13.19909131
Cu      44.08808327       7.54233789      15.08467579
Cu      44.08808327       9.42792236      16.97026026
Cu      44.08808327       7.54233789      18.85584474
Cu      44.08808327       9.42792236      20.74142921
Cu      44.08808327       7.54233789      22.62701368
Cu      44.08808327       9.42792236      24.51259815
Cu      44.08808327       7.54233789      26.39818263
Cu      44.08808327       9.42792236      28.28376710
Cu      44.08808327       7.54233789      30.16935158
Cu      44.08808327       9.42792236      32.05493605
Cu      44.08808327       7.54233789      33.94052052
Cu      44.08808327       9.42792236      35.82610499
Cu      44.08808327      11.31350684       0.00000000
Cu      44.08808327      13.19909131       1.88558447
Cu      44.08808327      11.31350684       3.77116895
Cu      44.08808327      13.19909131       5.65675342
Cu      44.08808327      11.31350684       7.54233789
Cu      44.08808327      13.19909131       9.42792236
Cu      44.08808327      11.31350684      11.31350684
Cu      44.08808327      13.19909131      13.19909131
Cu      44.08808327      11.31350684      15.08467579
Cu      44.08808327      13.19909131      16.97026026
Cu      44.08808327      11.31350684      18.85584474
Cu      44.08808327      13.19909131      20.74142921
Cu      44.08808327      11.31350684      22.62701368
Cu      44.08808327      13.19909131      24.51259815
Cu      44.08808327      11.31350684      26.39818263
Cu      44.08808327      13.19909131      28.28376710
Cu      44.08808327      11.31350684      30.16935158
Cu      44.08808327      13.19909131      32.05493605
Cu      44.08808327      11.31350684      33.94052052
Cu      44.08808327      13.19909131      35.82610499
Cu      44.08808327      15.08467579       0.00000000
Cu      44.08808327      16.97026026       1.88558447
Cu      44.08808327      15.08467579       3.77116895
Cu      44.08808327      16.97026026       5.65675342
Cu      44.08808327      15.08467579       7.54233789
Cu      44.08808327      16.97026026       9.42792236
Cu      44.08808327      15.08467579      11.31350684
Cu      44.08808327      16.97026026      13.19909131
Cu      44.08808327      15.08467579      15.08467579
Cu      44.08808327      16.97026026      16.97026026
Cu      44.08808327      15.08467579      18.85584474
Cu      44.08808327      16.97026026      20.74142921
Cu      44.08808327      15.08467579      22.62701368
Cu      44.08808327      16.97026026      24.51259815
Cu      44.08808327      15.08467579      26.39818263
Cu      44.08808327      16.97026026      28.28376710
Cu      44.08808327      15.08467579      30.16935158
Cu      44.08808327      16.97026026      32.05493605
Cu      44.08808327      15.08467579      33.94052052
Cu      44.08808327      16.97026026      35.82610499
Cu      44.08808327      18.85584474       0.00000000
Cu      44.08808327      20.74142921       1.88558447
Cu      44.08808327      18.85584474       3.77116895
Cu      44.08808327      20.74142921       5.65675342
Cu      44.08808327      18.85584474       7.54233789
Cu      44.08808327      20.74142921       9.42792236
Cu      44.08808327      18.85584474      11.31350684
Cu      44.08808327      20.74142921      13.19909131
Cu      44.08808327      18.85584474      15.08467579
Cu      44.08808327      20.74142921      16.97026026
Cu      44.08808327      18.85584474      18.85584474
Cu      44.08808327      20.74142921      20.74142921
Cu      44.08808327      18.85584474      22.62701368
Cu      44.08808327      20.74142921      24.51259815
Cu      44.08808327      18.85584474      26.39818263
Cu      44.08808327      20.74142921      28.28376710
Cu      44.08808327      18.85584474      30.16935158
Cu      44.08808327      20.74142921      32.05493605
Cu      44.08808327      18.85584474      33.94052052
Cu      44.08808327      20.74142921      35.82610499
Cu      44.08808327      22.62701368       0.00000000
Cu      44.08808327      24.51259815       1.88558447
Cu      44.08808327      22.62701368       3.77116895
Cu      44.08808327      24.51259815       5.65675342
Cu      44.08808327      22.62701368       7.54233789
Cu      44.08808327      24.51259815       9.42792236
Cu      44.08808327      22.62701368      11.31350684
Cu      44.08808327      24.51259815      13.19909131
Cu      44.08808327      22.62701368      15.08467579
Cu      44.08808327      24.51259815      16.97026026
Cu      44.08808327      22.62701368      18.85584474
Cu      44.08808327      24.51259815      20.74142921
Cu      44.08808327      22.62701368      22.62701368
Cu      44.08808327      24.51259815      24.51259815
Cu      44.08808327      22.62701368      26.39818263
Cu      44.08808327      24.51259815      28.28376710
Cu      44.08808327      22.62701368      30.16935158
Cu      44.08808327      24.51259815      32.05493605
Cu      44.08808327      22.62701368      33.94052052
Cu      44.08808327      24.51259815      35.82610499
Cu      44.08808327      26.39818263       0.00000000
Cu      44.08808327      28.28376710       1.88558447
Cu      44.08808327      26.39818263       3.77116895
Cu      44.08808327      28.28376710       5.65675342
Cu      44.08808327      26.39818263       7.54233789
Cu      44.08808327      28.28376710       9.42792236
Cu      44.08808327      26.39818263      11.31350684
Cu      44.08808327      28.28376710      13.19909131
Cu      44.08808327      26.39818263      15.08467579
Cu      44.08808327      28.28376710      16.97026026
Cu      44.08808327      26.39818263      18.85584474
Cu      44.08808327      28.28376710      20.74142921
Cu      44.08808327      26.39818263      22.62701368
Cu      44.08808327      28.28376710      24.51259815
Cu      44.08808327      26.39818263      26.39818263
Cu      44.08808327      28.28376710      28.28376710
Cu      44.08808327      26.39818263      30.16935158
Cu      44.08808327      28.28376710      32.05493605
Cu      44.08808327      26.39818263      33.94052052
Cu      44.08808327      28.28376710      35.82610499
Cu      44.08808327      30.16935158       0.00000000
Cu      44.08808327      32.05493605       1.88558447
Cu      44.08808327      30.16935158       3.77116895
Cu      44.08808327      32.05493605       5.65675342
Cu      44.08808327      30.16935158       7.54233789
Cu      44.08808327      32.05493605       9.42792236
Cu      44.08808327      30.16935158      11.31350684
Cu      44.08808327      32.05493605      13.19909131
Cu      44.08808327      30.16935158      15.08467579
Cu      44.08808327      32.05493605      16.97026026
Cu      44.08808327      30.16935158      18.85584474
Cu      44.08808327      32.05493605      20.74142921
Cu      44.08808327      30.16935158      22.62701368
Cu      44.08808327      32.05493605      24.51259815
Cu      44.08808327      30.16935158      26.39818263
Cu      44.08808327      32.05493605      28.28376710
Cu      44.08808327      30.16935158      30.16935158
Cu      44.08808327      32.05493605      32.05493605
Cu      44.08808327      30.16935158      33.94052052
Cu      44.08808327      32.05493605      35.82610499
Cu      44.08808327      33.94052052       0.00000000
Cu      44.08808327      35.82610499       1.88558447
Cu      44.08808327      33.94052052       3.77116895
Cu      44.08808327      35.82610499       5.65675342
Cu      44.08808327      33.94052052       7.54233789
Cu      44.08808327      35.82610499       9.42792236
Cu      44.08808327      33.94052052      11.31350684
Cu      44.08808327      35.82610499      13.19909131
Cu      44.08808327      33.94052052      15.08467579
Cu      44.08808327      35.82610499      16.97026026
Cu      44.08808327      33.94052052      18.85584474
Cu      44.08808327      35.82610499      20.74142921
Cu      44.08808327      33.94052052      22.62701368
Cu      44.08808327      35.82610499      24.51259815
Cu      44.08808327      33.94052052      26.39818263
Cu      44.08808327      35.82610499      28.28376710
Cu      44.08808327      33.94052052      30.16935158
Cu      44.08808327      35.82610499      32.05493605
Cu      44.08808327      33.94052052      33.94052052
Cu      44.08808327      35.82610499      35.82610499
Cu      44.08808327      37.71168947       0.00000000
Cu      44.08808327      39.59727394       1.88558447
Cu      44.08808327      37.71168947       3.77116895
Cu      44.08808327      39.59727394       5.65675342
Cu      44.08808327      37.71168947       7.54233789
Cu      44.08808327      39.59727394       9.42792236
Cu      44.08808327      37.71168947      11.31350684
Cu      44.08808327      39.59727394      13.19909131
Cu      44.08808327      37.71168947      15.08467579
Cu      44.08808327      39.59727394      16.97026026
Cu      44.08808327      37.71168947      18.85584474
Cu      44.08808327      39.59727394      20.74142921
Cu      44.08808327      37.71168947      22.62701368
Cu      44.08808327      39.59727394      24.51259815
Cu      44.08808327      37.71168947      26.39818263
Cu      44.08808327      39.59727394      28.28376710
Cu      44.08808327      37.71168947      30.16935158
Cu      44.08808327      39.59727394      32.05493605
Cu      44.08808327      37.71168947      33.94052052
Cu      44.08808327      39.59727394      35.82610499
Cu      44.08808327      41.48285842       0.00000000
Cu      44.08808327      43.36844289       1.88558447
Cu      44.08808327      41.48285842       3.77116895
Cu      44.08808327      43.36844289       5.65675342
Cu      44.08808327      41.48285842       7.54233789
Cu      44.08808327      43.36844289       9.42792236
Cu      44.08808327      41.48285842      11.31350684
Cu      44.08808327      43.36844289      13.19909131
Cu      44.08808327      41.48285842      15.08467579
Cu      44.08808327      43.36844289      16.97026026
Cu      44.08808327      41.48285842      18.85584474
Cu      44.08808327      43.36844289      20.74142921
Cu      44.08808327      41.48285842      22.62701368
Cu      44.08808327      43.36844289      24.51259815
Cu      44.08808327      41.48285842      26.39818263
Cu      44.08808327      43.36844289      28.28376710
Cu      44.08808327      41.48285842      30.16935158
Cu      44.08808327      43.36844289      32.05493605
Cu      44.08808327      41.48285842      33.94052052
Cu      44.08808327      43.36844289      35.82610499
Cu      44.08808327      45.25402737       0.00000000
Cu      44.08808327      47.13961184       1.88558447
Cu      44.08808327      45.25402737       3.77116895
Cu      44.08808327      47.13961184       5.65675342
Cu      44.08808327      45.25402737       7.54233789
Cu      44.08808327      47.13961184       9.42792236
Cu      44.08808327      45.25402737      11.31350684
Cu      44.08808327      47.13961184      13.19909131
Cu      44.08808327      45.25402737      15.08467579
Cu      44.08808327      47.13961184      16.97026026
Cu      44.08808327      45.25402737      18.85584474
Cu      44.08808327      47.13961184      20.74142921
Cu      44.08808327      45.25402737      22.62701368
Cu      44.08808327      47.13961184      24.51259815
Cu      44.08808327      45.25402737      26.39818263
Cu      44.08808327      47.13961184      28.28376710
Cu      44.08808327      45.25402737      30.16935158
Cu      44.08808327      47.13961184      32.05493605
Cu      44.08808327      45.25402737      33.94052052
Cu      44.08808327      47.13961184      35.82610499
Cu      44.08808327      49.02519631       0.00000000
Cu      44.08808327      50.91078078       1.88558447
Cu      44.08808327      49.02519631       3.77116895
Cu      44.08808327      50.91078078       5.65675342
Cu      44.08808327      49.02519631       7.54233789
Cu      44.08808327      50.91078078       9.42792236
Cu      44.08808327      49.02519631      11.31350684
Cu      44.08808327      50.91078078      13.19909131
Cu      44.08808327      49.02519631      15.08467579
Cu      44.08808327      50.91078078      16.97026026
Cu      44.08808327      49.02519631      18.85584474
Cu      44.08808327      50.91078078      20.74142921
Cu      44.08808327      49.02519631      22.62701368
Cu      44.08808327      50.91078078      24.51259815
Cu      44.08808327      49.02519631      26.39818263
Cu      44.08808327      50.91078078      28.28376710
Cu      44.08808327      49.02519631      30.16935158
Cu      44.08808327      50.91078078      32.05493605
Cu      44.08808327      49.02519631      33.94052052
Cu      44.08808327      50.91078078      35.82610499
Cu      44.08808327      52.79636526       0.00000000
Cu      44.08808327      54.68194973       1.88558447
Cu      44.08808327      52.79636526       3.77116895
Cu      44.08808327      54.68194973       5.65675342
Cu      44.08808327      52.79636526       7.54233789
Cu      44.08808327      54.68194973       9.42792236
Cu      44.08808327      52.79636526      11.31350684
Cu      44.08808327      54.68194973      13.19909131
Cu      44.08808327      52.79636526      15.08467579
Cu      44.08808327      54.68194973      16.97026026
Cu      44.08808327      52.79636526      18.85584474
Cu      44.08808327      54.68194973      20.74142921
Cu      44.08808327      52.79636526      22.62701368
Cu      44.08808327      54.68194973      24.51259815
Cu      44.08808327      52.79636526      26.39818263
Cu      44.08808327      54.68194973      28.28376710
Cu      44.08808327      52.79636526      30.16935158
Cu      44.08808327      54.68194973      32.05493605
Cu      44.08808327      52.79636526      33.94052052
Cu      44.08808327      54.68194973      35.82610499
Cu      44.08808327      56.56753421       0.00000000
Cu      44.08808327      58.45311868       1.88558447
Cu      44.08808327      56.56753421       3.77116895
Cu      44.08808327      58.45311868       5.65675342
Cu      44.08808327      56.56753421       7.54233789
Cu      44.08808327      58.45311868       9.42792236
Cu      44.08808327      56.56753421      11.31350684
Cu      44.08808327      58.45311868      13.19909131
Cu      44.08808327      56.56753421      15.08467579
Cu      44.08808327      58.45311868      16.97026026
Cu      44.08808327      56.56753421      18.85584474
Cu      44.08808327      58.45311868      20.74142921
Cu      44.08808327      56.56753421      22.62701368
Cu      44.08808327      58.45311868      24.51259815
Cu      44.08808327      56.56753421      26.39818263
Cu      44.08808327      58.45311868      28.28376710
Cu      44.08808327      56.56753421      30.16935158
Cu      44.08808327      58.45311868      32.05493605
Cu      44.08808327      56.56753421      33.94052052
Cu      44.08808327      58.45311868      35.82610499
Cu      47.76209021       0.00000000       0.00000000
Cu      47.76209021       1.88558447       1.88558447
Cu      47.76209021       0.00000000       3.77116895
Cu      47.76209021       1.88558447       5.65675342
Cu      47.76209021       0.00000000       7.54233789
Cu      47.76209021       1.88558447       9.42792236
Cu      47.76209021       0.00000000      11.31350684
Cu      47.76209021       1.88558447      13.19909131
Cu      47.76209021       0.00000000      15.08467579
Cu      47.76209021       1.88558447      16.97026026
Cu      47.76209021       0.00000000      18.85584474
Cu      47.76209021       1.88558447      20.74142921
Cu      47.76209021       0.00000000      22.62701368
Cu      47.76209021       1.88558447      24.51259815
Cu      47.76209021       0.00000000      26.39818263
Cu      47.76209021       1.88558447      28.28376710
Cu      47.76209021       0.00000000      30.16935158
Cu      47.76209021       1.88558447      32.05493605
Cu      47.76209021       0.00000000      33.94052052
Cu      47.76209021       1.88558447      35.82610499
Cu      47.76209021       3.77116895       0.00000000
Cu      47.76209021       5.65675342       1.88558447
Cu      47.76209021       3.77116895       3.77116895
Cu      47.76209021       5.65675342       5.65675342
Cu      47.76209021       3.77116895       7.54233789
Cu      47.76209021       5.65675342       9.42792236
Cu      47.76209021       3.77116895      11.31350684
Cu      47.76209021       5.65675342      13.19909131
Cu      47.76209021       3.77116895      15.08467579
Cu      47.76209021       5.65675342      16.97026026
Cu      47.76209021       3.77116895      18.85584474
Cu      47.76209021       5.65675342      20.74142921
Cu      47.76209021       3.77116895      22.62701368
Cu      47.76209021       5.65675342      24.51259815
Cu      47.76209021       3.77116895      26.39818263
Cu      47.76209021       5.65675342      28.28376710
Cu      47.76209021       3.77116895      30.16935158
Cu      47.76209021       5.65675342      32.05493605
Cu      47.76209021       3.77116895      33.94052052
Cu      47.76209021       5.65675342      35.82610499
Cu      47.76209021       7.54233789       0.00000000
Cu      47.76209021       9.42792236       1.88558447
Cu      47.76209021       7.54233789       3.77116895
Cu      47.76209021       9.42792236       5.65675342
Cu      47.76209021       7.54233789       7.54233789
Cu      47.76209021       9.42792236       9.42792236
Cu      47.76209021       7.54233789      11.31350684
Cu      47.76209021       9.42792236      13.19909131
Cu      47.76209021       7.54233789      15.08467579
Cu      47.76209021       9.42792236      16.97026026
Cu      47.76209021       7.54233789      18.85584474
Cu      47.76209021       9.42792236      20.74142921
Cu      47.76209021       7.54233789      22.62701368
Cu      47.76209021       9.42792236      24.51259815
Cu      47.76209021       7.54233789      26.39818263
Cu      47.76209021       9.42792236      28.28376710
Cu      47.76209021       7.54233789      30.16935158
Cu      47.76209021       9.42792236      32.05493605
Cu      47.76209021       7.54233789      33.94052052
Cu      47.76209021       9.42792236      35.82610499
Cu      47.76209021      11.31350684       0.00000000
Cu      47.76209021      13.19909131       1.88558447
Cu      47.76209021      11.31350684       3.77116895
Cu      47.76209021      13.19909131       5.65675342
Cu      47.76209021      11.31350684       7.54233789
Cu      47.76209021      13.19909131       9.42792236
Cu      47.76209021      11.31350684      11.31350684
Cu      47.76209021      13.19909131      13.19909131
Cu      47.76209021      11.31350684      15.08467579
Cu      47.76209021      13.19909131      16.97026026
Cu      47.76209021      11.31350684      18.85584474
Cu      47.76209021      13.19909131      20.74142921
Cu      47.76209021      11.31350684      22.62701368
Cu      47.76209021      13.19909131      24.51259815
Cu      47.76209021      11.31350684      26.39818263
Cu      47.76209021      13.19909131      28.28376710
Cu      47.76209021      11.31350684      30.16935158
Cu      47.76209021      13.19909131      32.05493605
Cu      47.76209021      11.31350684      33.94052052
Cu      47.76209021      13.19909131      35.82610499
Cu      47.76209021      15.08467579       0.00000000
Cu      47.76209021      16.97026026       1.88558447
Cu      47.76209021      15.08467579       3.77116895
Cu      47.76209021      16.97026026       5.65675342
Cu      47.76209021      15.08467579       7.54233789
Cu      47.76209021      16.97026026       9.42792236
Cu      47.76209021      15.08467579      11.31350684
Cu      47.76209021      16.97026026      13.19909131
Cu      47.76209021      15.08467579      15.08467579
Cu      47.76209021      16.97026026      16.97026026
Cu      47.76209021      15.08467579      18.85584474
Cu      47.76209021      16.97026026      20.74142921
Cu      47.76209021      15.08467579      22.62701368
Cu      47.76209021      16.97026026      24.51259815
Cu      47.76209021      15.08467579      26.39818263
Cu      47.76209021      16.97026026      28.28376710
Cu      47.76209021      15.08467579      30.16935158
Cu      47.76209021      16.97026026      32.05493605
Cu      47.76209021      15.08467579      33.94052052
Cu      47.76209021      16.97026026      35.82610499
Cu      47.76209021      18.85584474       0.00000000
Cu      47.76209021      20.74142921       1.88558447
Cu      47.76209021      18.85584474       3.77116895
Cu      47.76209021      20.74142921       5.65675342
Cu      47.76209021      18.85584474       7.54233789
Cu      47.76209021      20.74142921       9.42792236
Cu      47.76209021      18.85584474      11.31350684
Cu      47.76209021      20.74142921      13.19909131
Cu      47.76209021      18.85584474      15.08467579
Cu      47.76209021      20.74142921      16.97026026
Cu      47.76209021      18.85584474      18.85584474
Cu      47.76209021      20.74142921      20.74142921
Cu      47.76209021      18.85584474      22.62701368
Cu      47.76209021      20.74142921      24.51259815
Cu      47.76209021      18.85584474      26.39818263
Cu      47.76209021      20.74142921      28.28376710
Cu      47.76209021      18.85584474      30.16935158
Cu      47.76209021      20.74142921      32.05493605
Cu      47.76209021      18.85584474      33.94052052
Cu      47.76209021      20.74142921      35.82610499
Cu      47.76209021      22.62701368       0.00000000
Cu      47.76209021      24.51259815       1.88558447
Cu      47.76209021      22.62701368       3.77116895
Cu      47.76209021      24.51259815       5.65675342
Cu      47.76209021      22.62701368       7.54233789
Cu      47.76209021      24.51259815       9.42792236
Cu      47.76209021      22.62701368      11.31350684
Cu      47.76209021      24.51259815      13.19909131
Cu      47.76209021      22.62701368      15.08467579
Cu      47.76209021      24.51259815      16.97026026
Cu      47.76209021      22.62701368      18.85584474
Cu      47.76209021      24.51259815      20.74142921
Cu      47.76209021      22.62701368      22.62701368
Cu      47.76209021      24.51259815      24.51259815
Cu      47.76209021      22.62701368      26.39818263
Cu      47.76209021      24.51259815      28.28376710
Cu      47.76209021      22.62701368      30.16935158
Cu      47.76209021      24.51259815      32.05493605
Cu      47.76209021      22.62701368      33.94052052
Cu      47.76209021      24.51259815      35.82610499
Cu      47.76209021      26.39818263       0.00000000
Cu      47.76209021      28.28376710       1.88558447
Cu      47.76209021      26.39818263       3.77116895
Cu      47.76209021      28.28376710       5.65675342
Cu      47.76209021      26.39818263       7.54233789
Cu      47.76209021      28.28376710       9.42792236
Cu      47.76209021      26.39818263      11.31350684
Cu      47.76209021      28.28376710      13.19909131
Cu      47.76209021      26.39818263      15.08467579
Cu      47.76209021      28.28376710      16.97026026
Cu      47.76209021      26.39818263      18.85584474
Cu      47.76209021      28.28376710      20.74142921
Cu      47.76209021      26.39818263      22.62701368
Cu      47.76209021      28.28376710      24.51259815
Cu      47.76209021      26.39818263      26.39818263
Cu      47.76209021      28.28376710      28.28376710
Cu      47.76209021      26.39818263      30.16935158
Cu      47.76209021      28.28376710      32.05493605
Cu      47.76209021      26.39818263      33.94052052
Cu      47.76209021      28.28376710      35.82610499
Cu      47.76209021      30.16935158       0.00000000
Cu      47.76209021      32.05493605       1.88558447
Cu      47.76209021      30.16935158       3.77116895
Cu      47.76209021      32.05493605       5.65675342
Cu      47.76209021      30.16935158       7.54233789
Cu      47.76209021      32.05493605       9.42792236
Cu      47.76209021      30.16935158      11.31350684
Cu      47.76209021      32.05493605      13.19909131
Cu      47.76209021      30.16935158      15.08467579
Cu      47.76209021      32.05493605      16.97026026
Cu      47.76209021      30.16935158      18.85584474
Cu      47.76209021      32.05493605      20.74142921
Cu      47.76209021      30.16935158      22.62701368
Cu      47.76209021      32.05493605      24.51259815
Cu      47.76209021      30.16935158      26.39818263
Cu      47.76209021      32.05493605      28.28376710
Cu      47.76209021      30.16935158      30.16935158
Cu      47.76209021      32.05493605      32.05493605
Cu      47.76209021      30.16935158      33.94052052
Cu      47.76209021      32.05493605      35.82610499
Cu      47.76209021      33.94052052       0.00000000
Cu      47.76209021      35.82610499       1.88558447
Cu      47.76209021      33.94052052       3.77116895
Cu      47.76209021      35.82610499       5.65675342
Cu      47.76209021      33.94052052       7.54233789
Cu      47.76209021      35.82610499       9.42792236
Cu      47.76209021      33.94052052      11.31350684
Cu      47.76209021      35.82610499      13.19909131
Cu      47.76209021      33.94052052      15.08467579
Cu      47.76209021      35.82610499      16.97026026
Cu      47.76209021      33.94052052      18.85584474
Cu      47.76209021      35.82610499      20.74142921
Cu      47.76209021      33.94052052      22.62701368
Cu      47.76209021      35.82610499      24.51259815
Cu      47.76209021      33.94052052      26.39818263
Cu      47.76209021      35.82610499      28.28376710
Cu      47.76209021      33.94052052      30.16935158
Cu      47.76209021      35.82610499      32.05493605
Cu      47.76209021      33.94052052      33.94052052
Cu      47.76209021      35.82610499      35.82610499
Cu      47.76209021      37.71168947       0.00000000
Cu      47.76209021      39.59727394       1.88558447
Cu      47.76209021      37.71168947       3.77116895
Cu      47.76209021      39.59727394       5.65675342
Cu      47.76209021      37.71168947       7.54233789
Cu      47.76209021      39.59727394       9.42792236
Cu      47.76209021      37.71168947      11.31350684
Cu      47.76209021      39.59727394      13.19909131
Cu      47.76209021      37.71168947      15.08467579
Cu      47.76209021      39.59727394      16.97026026
Cu      47.76209021      37.71168947      18.85584474
Cu      47.76209021      39.59727394      20.74142921
Cu      47.76209021      37.71168947      22.62701368
Cu      47.76209021      39.59727394      24.51259815
Cu      47.76209021      37.71168947      26.39818263
Cu      47.76209021      39.59727394      28.28376710
Cu      47.76209021      37.71168947      30.16935158
Cu      47.76209021      39.59727394      32.05493605
Cu      47.76209021      37.71168947      33.94052052
Cu      47.76209021      39.59727394      35.82610499
Cu      47.76209021      41.48285842       0.00000000
Cu      47.76209021      43.36844289       1.88558447
Cu      47.76209021      41.48285842       3.77116895
Cu      47.76209021      43.36844289       5.65675342
Cu      47.76209021      41.48285842       7.54233789
Cu      47.76209021      43.36844289       9.42792236
Cu      47.76209021      41.48285842      11.31350684
Cu      47.76209021      43.36844289      13.19909131
Cu      47.76209021      41.48285842      15.08467579
Cu      47.76209021      43.36844289      16.97026026
Cu      47.76209021      41.48285842      18.85584474
Cu      47.76209021      43.36844289      20.74142921
Cu      47.76209021      41.48285842      22.62701368
Cu      47.76209021      43.36844289      24.51259815
Cu      47.76209021      41.48285842      26.39818263
Cu      47.76209021      43.36844289      28.28376710
Cu      47.76209021      41.48285842      30.16935158
Cu      47.76209021      43.36844289      32.05493605
Cu      47.76209021      41.48285842      33.94052052
Cu      47.76209021      43.36844289      35.82610499
Cu      47.76209021      45.25402737       0.00000000
Cu      47.76209021      47.13961184       1.88558447
Cu      47.76209021      45.25402737       3.77116895
Cu      47.76209021      47.13961184       5.65675342
Cu      47.76209021      45.25402737       7.54233789
Cu      47.76209021      47.13961184       9.42792236
Cu      47.76209021      45.25402737      11.31350684
Cu      47.76209021      47.13961184      13.19909131
Cu      47.76209021      45.25402737      15.08467579
Cu      47.76209021      47.13961184      16.97026026
Cu      47.76209021      45.25402737      18.85584474
Cu      47.76209021      47.13961184      20.74142921
Cu      47.76209021      45.25402737      22.62701368
Cu      47.76209021      47.13961184      24.51259815
Cu      47.76209021      45.25402737      26.39818263
Cu      47.76209021      47.13961184      28.28376710
Cu      47.76209021      45.25402737      30.16935158
Cu      47.76209021      47.13961184      32.05493605
Cu      47.76209021      45.25402737      33.94052052
Cu      47.76209021      47.13961184      35.82610499
Cu      47.76209021      49.02519631       0.00000000
Cu      47.76209021      50.91078078       1.88558447
Cu      47.76209021      49.02519631       3.77116895
Cu      47.76209021      50.91078078       5.65675342
Cu      47.76209021      49.02519631       7.54233789
Cu      47.76209021      50.91078078       9.42792236
Cu      47.76209021      49.02519631      11.31350684
Cu      47.76209021      50.91078078      13.19909131
Cu      47.76209021      49.02519631      15.08467579
Cu      47.76209021      50.91078078      16.97026026
Cu      47.76209021      49.02519631      18.85584474
Cu      47.76209021      50.91078078      20.74142921
Cu      47.76209021      49.02519631      22.62701368
Cu      47.76209021      50.91078078      24.51259815
Cu      47.76209021      49.02519631      26.39818263
Cu      47.76209021      50.91078078      28.28376710
Cu      47.76209021      49.02519631      30.16935158
Cu      47.76209021      50.91078078      32.05493605
Cu      47.76209021      49.02519631      33.94052052
Cu      47.76209021      50.91078078      35.82610499
Cu      47.76209021      52.79636526       0.00000000
Cu      47.76209021      54.68194973       1.88558447
Cu      47.76209021      52.79636526       3.77116895
Cu      47.76209021      54.68194973       5.65675342
Cu      47.76209021      52.79636526       7.54233789
Cu      47.76209021      54.68194973       9.42792236
Cu      47.76209021      52.79636526      11.31350684
Cu      47.76209021      54.68194973      13.19909131
Cu      47.76209021      52.79636526      15.08467579
Cu      47.76209021      54.68194973      16.97026026
Cu      47.76209021      52.79636526      18.85584474
Cu      47.76209021      54.68194973      20.74142921
Cu      47.76209021      52.79636526      22.62701368
Cu      47.76209021      54.68194973      24.51259815
Cu      47.76209021      52.79636526      26.39818263
Cu      47.76209021      54.68194973      28.28376710
Cu      47.76209021      52.79636526      30.16935158
Cu      47.76209021      54.68194973      32.05493605
Cu      47.76209021      52.79636526      33.94052052
Cu      47.76209021      54.68194973      35.82610499
Cu      47.76209021      56.56753421       0.00000000
Cu      47.76209021      58.45311868       1.88558447
Cu      47.76209021      56.56753421       3.77116895
Cu      47.76209021      58.45311868       5.65675342
Cu      47.76209021      56.56753421       7.54233789
Cu      47.76209021      58.45311868       9.42792236
Cu      47.76209021      56.56753421      11.31350684
Cu      47.76209021      58.45311868      13.19909131
Cu      47.76209021      56.56753421      15.08467579
Cu      47.76209021      58.45311868      16.97026026
Cu      47.76209021      56.56753421      18.85584474
Cu      47.76209021      58.45311868      20.74142921
Cu      47.76209021      56.56753421      22.62701368
Cu      47.76209021      58.45311868      24.51259815
Cu      47.76209021      56.56753421      26.39818263
Cu      47.76209021      58.45311868      28.28376710
Cu      47.76209021      56.56753421      30.16935158
Cu      47.76209021      58.45311868      32.05493605
Cu      47.76209021      56.56753421      33.94052052
Cu      47.76209021      58.45311868      35.82610499
Cu      51.43609714       0.00000000       0.00000000
Cu      51.43609714       1.88558447       1.88558447
Cu      51.43609714       0.00000000       3.77116895
Cu      51.43609714       1.88558447       5.65675342
Cu      51.43609714       0.00000000       7.54233789
Cu      51.43609714       1.88558447       9.42792236
Cu      51.43609714       0.00000000      11.31350684
Cu      51.43609714       1.88558447      13.19909131
Cu      51.43609714       0.00000000      15.08467579
Cu      51.43609714       1.88558447      16.97026026
Cu      51.43609714       0.00000000      18.85584474
Cu      51.43609714       1.88558447      20.74142921
Cu      51.43609714       0.00000000      22.62701368
Cu      51.43609714       1.88558447      24.51259815
Cu      51.43609714       0.00000000      26.39818263
Cu      51.43609714       1.88558447      28.28376710
Cu      51.43609714       0.00000000      30.16935158
Cu      51.43609714       1.88558447      32.05493605
Cu      51.43609714       0.00000000      33.94052052
Cu      51.43609714       1.88558447      35.82610499
Cu      51.43609714       3.77116895       0.00000000
Cu      51.43609714       5.65675342       1.88558447
Cu      51.43609714       3.77116895       3.77116895
Cu      51.43609714       5.65675342       5.65675342
Cu      51.43609714       3.77116895       7.54233789
Cu      51.43609714       5.65675342       9.42792236
Cu      51.43609714       3.77116895      11.31350684
Cu      51.43609714       5.65675342      13.19909131
Cu      51.43609714       3.77116895      15.08467579
Cu      51.43609714       5.65675342      16.97026026
Cu      51.43609714       3.77116895      18.85584474
Cu      51.43609714       5.65675342      20.74142921
Cu      51.43609714       3.77116895      22.62701368
Cu      51.43609714       5.65675342      24.51259815
Cu      51.43609714       3.77116895      26.39818263
Cu      51.43609714       5.65675342      28.28376710
Cu      51.43609714       3.77116895      30.16935158
Cu      51.43609714       5.65675342      32.05493605
Cu      51.43609714       3.77116895      33.94052052
Cu      51.43609714       5.65675342      35.82610499
Cu      51.43609714       7.54233789       0.00000000
Cu      51.43609714       9.42792236       1.88558447
Cu      51.43609714       7.54233789       3.77116895
Cu      51.43609714       9.42792236       5.65675342
Cu      51.43609714       7.54233789       7.54233789
Cu      51.43609714       9.42792236       9.42792236
Cu      51.43609714       7.54233789      11.31350684
Cu      51.43609714       9.42792236      13.19909131
Cu      51.43609714       7.54233789      15.08467579
Cu      51.43609714       9.42792236      16.97026026
Cu      51.43609714       7.54233789      18.85584474
Cu      51.43609714       9.42792236      20.74142921
Cu      51.43609714       7.54233789      22.62701368
Cu      51.43609714       9.42792236      24.51259815
Cu      51.43609714       7.54233789      26.39818263
Cu      51.43609714       9.42792236      28.28376710
Cu      51.43609714       7.54233789      30.16935158
Cu      51.43609714       9.42792236      32.05493605
Cu      51.43609714       7.54233789      33.94052052
Cu      51.43609714       9.42792236      35.82610499
Cu      51.43609714      11.31350684       0.00000000
Cu      51.43609714      13.19909131       1.88558447
Cu      51.43609714      11.31350684       3.77116895
Cu      51.43609714      13.19909131       5.65675342
Cu      51.43609714      11.31350684       7.54233789
Cu      51.43609714      13.19909131       9.42792236
Cu      51.43609714      11.31350684      11.31350684
Cu      51.43609714      13.19909131      13.19909131
Cu      51.43609714      11.31350684      15.08467579
Cu      51.43609714      13.19909131      16.97026026
Cu      51.43609714      11.31350684      18.85584474
Cu      51.43609714      13.19909131      20.74142921
Cu      51.43609714      11.31350684      22.62701368
Cu      51.43609714      13.19909131      24.51259815
Cu      51.43609714      11.31350684      26.39818263
Cu      51.43609714      13.19909131      28.28376710
Cu      51.43609714      11.31350684      30.16935158
Cu      51.43609714      13.19909131      32.05493605
Cu      51.43609714      11.31350684      33.94052052
Cu      51.43609714      13.19909131      35.82610499
Cu      51.43609714      15.08467579       0.00000000
Cu      51.43609714      16.97026026       1.88558447
Cu      51.43609714      15.08467579       3.77116895
Cu      51.43609714      16.97026026       5.65675342
Cu      51.43609714      15.08467579       7.54233789
Cu      51.43609714      16.97026026       9.42792236
Cu      51.43609714      15.08467579      11.31350684
Cu      51.43609714      16.97026026      13.19909131
Cu      51.43609714      15.08467579      15.08467579
Cu      51.43609714      16.97026026      16.97026026
Cu      51.43609714      15.08467579      18.85584474
Cu      51.43609714      16.97026026      20.74142921
Cu      51.43609714      15.08467579      22.62701368
Cu      51.43609714      16.97026026      24.51259815
Cu      51.43609714      15.08467579      26.39818263
Cu      51.43609714      16.97026026      28.28376710
Cu      51.43609714      15.08467579      30.16935158
Cu      51.43609714      16.97026026      32.05493605
Cu      51.43609714      15.08467579      33.94052052
Cu      51.43609714      16.97026026      35.82610499
Cu      51.43609714      18.85584474       0.00000000
Cu      51.43609714      20.74142921       1.88558447
Cu      51.43609714      18.85584474       3.77116895
Cu      51.43609714      20.74142921       5.65675342
Cu      51.43609714      18.85584474       7.54233789
Cu      51.43609714      20.74142921       9.42792236
Cu      51.43609714      18.85584474      11.31350684
Cu      51.43609714      20.74142921      13.19909131
Cu      51.43609714      18.85584474      15.08467579
Cu      51.43609714      20.74142921      16.97026026
Cu      51.43609714      18.85584474      18.85584474
Cu      51.43609714      20.74142921      20.74142921
Cu      51.43609714      18.85584474      22.62701368
Cu      51.43609714      20.74142921      24.51259815
Cu      51.43609714      18.85584474      26.39818263
Cu      51.43609714      20.74142921      28.28376710
Cu      51.43609714      18.85584474      30.16935158
Cu      51.43609714      20.74142921      32.05493605
Cu      51.43609714      18.85584474      33.94052052
Cu      51.43609714      20.74142921      35.82610499
Cu      51.43609714      22.62701368       0.00000000
Cu      51.43609714      24.51259815       1.88558447
Cu      51.43609714      22.62701368       3.77116895
Cu      51.43609714      24.51259815       5.65675342
Cu      51.43609714      22.62701368       7.54233789
Cu      51.43609714      24.51259815       9.42792236
Cu      51.43609714      22.62701368      11.31350684
Cu      51.43609714      24.51259815      13.19909131
Cu      51.43609714      22.62701368      15.08467579
Cu      51.43609714      24.51259815      16.97026026
Cu      51.43609714      22.62701368      18.85584474
Cu      51.43609714      24.51259815      20.74142921
Cu      51.43609714      22.62701368      22.62701368
Cu      51.43609714      24.51259815      24.51259815
Cu      51.43609714      22.62701368      26.39818263
Cu      51.43609714      24.51259815      28.28376710
Cu      51.43609714      22.62701368      30.16935158
Cu      51.43609714      24.51259815      32.05493605
Cu      51.43609714      22.62701368      33.94052052
Cu      51.43609714      24.51259815      35.82610499
Cu      51.43609714      26.39818263       0.00000000
Cu      51.43609714      28.28376710       1.88558447
Cu      51.43609714      26.39818263       3.77116895
Cu      51.43609714      28.28376710       5.65675342
Cu      51.43609714      26.39818263       7.54233789
Cu      51.43609714      28.28376710       9.42792236
Cu      51.43609714      26.39818263      11.31350684
Cu      51.43609714      28.28376710      13.19909131
Cu      51.43609714      26.39818263      15.08467579
Cu      51.43609714      28.28376710      16.97026026
Cu      51.43609714      26.39818263      18.85584474
Cu      51.43609714      28.28376710      20.74142921
Cu      51.43609714      26.39818263      22.62701368
Cu      51.43609714      28.28376710      24.51259815
Cu      51.43609714      26.39818263      26.39818263
Cu      51.43609714      28.28376710      28.28376710
Cu      51.43609714      26.39818263      30.16935158
Cu      51.43609714      28.28376710      32.05493605
Cu      51.43609714      26.39818263      33.94052052
Cu      51.43609714      28.28376710      35.82610499
Cu      51.43609714      30.16935158       0.00000000
Cu      51.43609714      32.05493605       1.88558447
Cu      51.43609714      30.16935158       3.77116895
Cu      51.43609714      32.05493605       5.65675342
Cu      51.43609714      30.16935158       7.54233789
Cu      51.43609714      32.05493605       9.42792236
Cu      51.43609714      30.16935158      11.31350684
Cu      51.43609714      32.05493605      13.19909131
Cu      51.43609714      30.16935158      15.08467579
Cu      51.43609714      32.05493605      16.97026026
Cu      51.43609714      30.16935158      18.85584474
Cu      51.43609714      32.05493605      20.74142921
Cu      51.43609714      30.16935158      22.62701368
Cu      51.43609714      32.05493605      24.51259815
Cu      51.43609714      30.16935158      26.39818263
Cu      51.43609714      32.05493605      28.28376710
Cu      51.43609714      30.16935158      30.16935158
Cu      51.43609714      32.05493605      32.05493605
Cu      51.43609714      30.16935158      33.94052052
Cu      51.43609714      32.05493605      35.82610499
Cu      51.43609714      33.94052052       0.00000000
Cu      51.43609714      35.82610499       1.88558447
Cu      51.43609714      33.94052052       3.77116895
Cu      51.43609714      35.82610499       5.65675342
Cu      51.43609714      33.94052052       7.54233789
Cu      51.43609714      35.82610499       9.42792236
Cu      51.43609714      33.94052052      11.31350684
Cu      51.43609714      35.82610499      13.19909131
Cu      51.43609714      33.94052052      15.08467579
Cu      51.43609714      35.82610499      16.97026026
Cu      51.43609714      33.94052052      18.85584474
Cu      51.43609714      35.82610499      20.74142921
Cu      51.43609714      33.94052052      22.62701368
Cu      51.43609714      35.82610499      24.51259815
Cu      51.43609714      33.94052052      26.39818263
Cu      51.43609714      35.82610499      28.28376710
Cu      51.43609714      33.94052052      30.16935158
Cu      51.43609714      35.82610499      32.05493605
Cu      51.43609714      33.94052052      33.94052052
Cu      51.43609714      35.82610499      35.82610499
Cu      51.43609714      37.71168947       0.00000000
Cu      51.43609714      39.59727394       1.88558447
Cu      51.43609714      37.71168947       3.77116895
Cu      51.43609714      39.59727394       5.65675342
Cu      51.43609714      37.71168947       7.54233789
Cu      51.43609714      39.59727394       9.42792236
Cu      51.43609714      37.71168947      11.31350684
Cu      51.43609714      39.59727394      13.19909131
Cu      51.43609714      37.71168947      15.08467579
Cu      51.43609714      39.59727394      16.97026026
Cu      51.43609714      37.71168947      18.85584474
Cu      51.43609714      39.59727394      20.74142921
Cu      51.43609714      37.71168947      22.62701368
Cu      51.43609714      39.59727394      24.51259815
Cu      51.43609714      37.71168947      26.39818263
Cu      51.43609714      39.59727394      28.28376710
Cu      51.43609714      37.71168947      30.16935158
Cu      51.43609714      39.59727394      32.05493605
Cu      51.43609714      37.71168947      33.94052052
Cu      51.43609714      39.59727394      35.82610499
Cu      51.43609714      41.48285842       0.00000000
Cu      51.43609714      43.36844289       1.88558447
Cu      51.43609714      41.48285842       3.77116895
Cu      51.43609714      43.36844289       5.65675342
Cu      51.43609714      41.48285842       7.54233789
Cu      51.43609714      43.36844289       9.42792236
Cu      51.43609714      41.48285842      11.31350684
Cu      51.43609714      43.36844289      13.19909131
Cu      51.43609714      41.48285842      15.08467579
Cu      51.43609714      43.36844289      16.97026026
Cu      51.43609714      41.48285842      18.85584474
Cu      51.43609714      43.36844289      20.74142921
Cu      51.43609714      41.48285842      22.62701368
Cu      51.43609714      43.36844289      24.51259815
Cu      51.43609714      41.48285842      26.39818263
Cu      51.43609714      43.36844289      28.28376710
Cu      51.43609714      41.48285842      30.16935158
Cu      51.43609714      43.36844289      32.05493605
Cu      51.43609714      41.48285842      33.94052052
Cu      51.43609714      43.36844289      35.82610499
Cu      51.43609714      45.25402737       0.00000000
Cu      51.43609714      47.13961184       1.88558447
Cu      51.43609714      45.25402737       3.77116895
Cu      51.43609714      47.13961184       5.65675342
Cu      51.43609714      45.25402737       7.54233789
Cu      51.43609714      47.13961184       9.42792236
Cu      51.43609714      45.25402737      11.31350684
Cu      51.43609714      47.13961184      13.19909131
Cu      51.43609714      45.25402737      15.08467579
Cu      51.43609714      47.13961184      16.97026026
Cu      51.43609714      45.25402737      18.85584474
Cu      51.43609714      47.13961184      20.74142921
Cu      51.43609714      45.25402737      22.62701368
Cu      51.43609714      47.13961184      24.51259815
Cu      51.43609714      45.25402737      26.39818263
Cu      51.43609714      47.13961184      28.28376710
Cu      51.43609714      45.25402737      30.16935158
Cu      51.43609714      47.13961184      32.05493605
Cu      51.43609714      45.25402737      33.94052052
Cu      51.43609714      47.13961184      35.82610499
Cu      51.43609714      49.02519631       0.00000000
Cu      51.43609714      50.91078078       1.88558447
Cu      51.43609714      49.02519631       3.77116895
Cu      51.43609714      50.91078078       5.65675342
Cu      51.43609714      49.02519631       7.54233789
Cu      51.43609714      50.91078078       9.42792236
Cu      51.43609714      49.02519631      11.31350684
Cu      51.43609714      50.91078078      13.19909131
Cu      51.43609714      49.02519631      15.08467579
Cu      51.43609714      50.91078078      16.97026026
Cu      51.43609714      49.02519631      18.85584474
Cu      51.43609714      50.91078078      20.74142921
Cu      51.43609714      49.02519631      22.62701368
Cu      51.43609714      50.91078078      24.51259815
Cu      51.43609714      49.02519631      26.39818263
Cu      51.43609714      50.91078078      28.28376710
Cu      51.43609714      49.02519631      30.16935158
Cu      51.43609714      50.91078078      32.05493605
Cu      51.43609714      49.02519631      33.94052052
Cu      51.43609714      50.91078078      35.82610499
Cu      51.43609714      52.79636526       0.00000000
Cu      51.43609714      54.68194973       1.88558447
Cu      51.43609714      52.79636526       3.77116895
Cu      51.43609714      54.68194973       5.65675342
Cu      51.43609714      52.79636526       7.54233789
Cu      51.43609714      54.68194973       9.42792236
Cu      51.43609714      52.79636526      11.31350684
Cu      51.43609714      54.68194973      13.19909131
Cu      51.43609714      52.79636526      15.08467579
Cu      51.43609714      54.68194973      16.97026026
Cu      51.43609714      52.79636526      18.85584474
Cu      51.43609714      54.68194973      20.74142921
Cu      51.43609714      52.79636526      22.62701368
Cu      51.43609714      54.68194973      24.51259815
Cu      51.43609714      52.79636526      26.39818263
Cu      51.43609714      54.68194973      28.28376710
Cu      51.43609714      52.79636526      30.16935158
Cu      51.43609714      54.68194973      32.05493605
Cu      51.43609714      52.79636526      33.94052052
Cu      51.43609714      54.68194973      35.82610499
Cu      51.43609714      56.56753421       0.00000000
Cu      51.43609714      58.45311868       1.88558447
Cu      51.43609714      56.56753421       3.77116895
Cu      51.43609714      58.45311868       5.65675342
Cu      51.43609714      56.56753421       7.54233789
Cu      51.43609714      58.45311868       9.42792236
Cu      51.43609714      56.56753421      11.31350684
Cu      51.43609714      58.45311868      13.19909131
Cu      51.43609714      56.56753421      15.08467579
Cu      51.43609714      58.45311868      16.97026026
Cu      51.43609714      56.56753421      18.85584474
Cu      51.43609714      58.45311868      20.74142921
Cu      51.43609714      56.56753421      22.62701368
Cu      51.43609714      58.45311868      24.51259815
Cu      51.43609714      56.56753421      26.39818263
Cu      51.43609714      58.45311868      28.28376710
Cu      51.43609714      56.56753421      30.16935158
Cu      51.43609714      58.45311868      32.05493605
Cu      51.43609714      56.56753421      33.94052052
Cu      51.43609714      58.45311868      35.82610499
Zn       1.83700347       0.00000000       1.88558447
Zn       1.83700347       1.88558447       0.00000000
Zn       1.83700347       0.00000000       5.65675342
Zn       1.83700347       1.88558447       3.77116895
Zn       1.83700347       0.00000000       9.42792236
Zn       1.83700347       1.88558447       7.54233789
Zn       1.83700347       0.00000000      13.19909131
Zn       1.83700347       1.88558447      11.31350684
Zn       1.83700347       0.00000000      16.97026026
Zn       1.83700347       1.88558447      15.08467579
Zn       1.83700347       0.00000000      20.74142921
Zn       1.83700347       1.88558447      18.85584474
Zn       1.83700347       0.00000000      24.51259815
Zn       1.83700347       1.88558447      22.62701368
Zn       1.83700347       0.00000000      28.28376710
Zn       1.83700347       1.88558447      26.39818263
Zn       1.83700347       0.00000000      32.05493605
Zn       1.83700347       1.88558447      30.16935158
Zn       1.83700347       0.00000000      35.82610499
Zn       1.83700347       1.88558447      33.94052052
Zn       1.83700347       3.77116895       1.88558447
Zn       1.83700347       5.65675342       0.00000000
Zn       1.83700347       3.77116895       5.65675342
Zn       1.83700347       5.65675342       3.77116895
Zn       1.83700347       3.77116895       9.42792236
Zn       1.83700347       5.65675342       7.54233789
Zn       1.83700347       3.77116895      13.19909131
Zn       1.83700347       5.65675342      11.31350684
Zn       1.83700347       3.77116895      16.97026026
Zn       1.83700347       5.65675342      15.08467579
Zn       1.83700347       3.77116895      20.74142921
Zn       1.83700347       5.65675342      18.85584474
Zn       1.83700347       3.77116895      24.51259815
Zn       1.83700347       5.65675342      22.62701368
Zn       1.83700347       3.77116895      28.28376710
Zn       1.83700347       5.65675342      26.39818263
Zn       1.83700347       3.77116895      32.05493605
Zn       1.83700347       5.65675342      30.16935158
Zn       1.83700347       3.77116895      35.82610499
Zn       1.83700347       5.65675342      33.94052052
Zn       1.83700347       7.54233789       1.88558447
Zn       1.83700347       9.42792236       0.00000000
Zn       1.83700347       7.54233789       5.65675342
Zn       1.83700347       9.42792236       3.77116895
Zn       1.83700347       7.54233789       9.42792236
Zn       1.83700347       9.42792236       7.54233789
Zn       1.83700347       7.54233789      13.19909131
Zn       1.83700347       9.42792236      11.31350684
Zn       1.83700347       7.54233789      16.97026026
Zn       1.83700347       9.42792236      15.08467579
Zn       1.83700347       7.54233789      20.74142921
Zn       1.83700347       9.42792236      18.85584474
Zn       1.83700347       7.54233789      24.51259815
Zn       1.83700347       9.42792236      22.62701368
Zn       1.83700347       7.54233789      28.28376710
Zn       1.83700347       9.42792236      26.39818263
Zn       1.83700347       7.54233789      32.05493605
Zn       1.83700347       9.42792236      30.16935158
Zn       1.83700347       7.54233789      35.82610499
Zn       1.83700347       9.42792236      33.94052052
Zn       1.83700347      11.31350684       1.88558447
Zn       1.83700347      13.19909131       0.00000000
Zn       1.83700347      11.31350684       5.65675342
Zn       1.83700347      13.19909131       3.77116895
Zn       1.83700347      11.31350684       9.42792236
Zn       1.83700347      13.19909131       7.54233789
Zn       1.83700347      11.31350684      13.19909131
Zn       1.83700347      13.19909131      11.31350684
Zn       1.83700347      11.31350684      16.97026026
Zn       1.83700347      13.19909131      15.08467579
Zn       1.83700347      11.31350684      20.74142921
Zn       1.83700347      13.19909131      18.85584474
Zn       1.83700347      11.31350684      24.51259815
Zn       1.83700347      13.19909131      22.62701368
Zn       1.83700347      11.31350684      28.28376710
Zn       1.83700347      13.19909131      26.39818263
Zn       1.83700347      11.31350684      32.05493605
Zn       1.83700347      13.19909131      30.16935158
Zn       1.83700347      11.31350684      35.82610499
Zn       1.83700347      13.19909131      33.94052052
Zn       1.83700347      15.08467579       1.88558447
Zn       1.83700347      16.97026026       0.00000000
Zn       1.83700347      15.08467579       5.65675342
Zn       1.83700347      16.97026026       3.77116895
Zn       1.83700347      15.08467579       9.42792236
Zn       1.83700347      16.97026026       7.54233789
Zn       1.83700347      15.08467579      13.19909131
Zn       1.83700347      16.97026026      11.31350684
Zn       1.83700347      15.08467579      16.97026026
Zn       1.83700347      16.97026026      15.08467579
Zn       1.83700347      15.08467579      20.74142921
Zn       1.83700347      16.97026026      18.85584474
Zn       1.83700347      15.08467579      24.51259815
Zn       1.83700347      16.97026026      22.62701368
Zn       1.83700347      15.08467579      28.28376710
Zn       1.83700347      16.97026026      26.39818263
Zn       1.83700347      15.08467579      32.05493605
Zn       1.83700347      16.97026026      30.16935158
Zn       1.83700347      15.08467579      35.82610499
Zn       1.83700347      16.97026026      33.94052052
Zn       1.83700347      18.85584474       1.88558447
Zn       1.83700347      20.74142921       0.00000000
Zn       1.83700347      18.85584474       5.65675342
Zn       1.83700347      20.74142921       3.77116895
Zn       1.83700347      18.85584474       9.42792236
Zn       1.83700347      20.74142921       7.54233789
Zn       1.83700347      18.85584474      13.19909131
Zn       1.83700347      20.74142921      11.31350684
Zn       1.83700347      18.85584474      16.97026026
Zn       1.83700347      20.74142921      15.08467579
Zn       1.83700347      18.85584474      20.74142921
Zn       1.83700347      20.74142921      18.85584474
Zn       1.83700347      18.85584474      24.51259815
Zn       1.83700347      20.74142921      22.62701368
Zn       1.83700347      18.85584474      28.28376710
Zn       1.83700347      20.74142921      26.39818263
Zn       1.83700347      18.85584474      32.05493605
Zn       1.83700347      20.74142921      30.16935158
Zn       1.83700347      18.85584474      35.82610499
Zn       1.83700347      20.74142921      33.94052052
Zn       1.83700347      22.62701368       1.88558447
Zn       1.83700347      24.51259815       0.00000000
Zn       1.83700347      22.62701368       5.65675342
Zn       1.83700347      24.51259815       3.77116895
Zn       1.83700347      22.62701368       9.42792236
Zn       1.83700347      24.51259815       7.54233789
Zn       1.83700347      22.62701368      13.19909131
Zn       1.83700347      24.51259815      11.31350684
Zn       1.83700347      22.62701368      16.97026026
Zn       1.83700347      24.51259815      15.08467579
Zn       1.83700347      22.62701368      20.74142921
Zn       1.83700347      24.51259815      18.85584474
Zn       1.83700347      22.62701368      24.51259815
Zn       1.83700347      24.51259815      22.62701368
Zn       1.83700347      22.62701368      28.28376710
Zn       1.83700347      24.51259815      26.39818263
Zn       1.83700347      22.62701368      32.05493605
Zn       1.83700347      24.51259815      30.16935158
Zn       1.83700347      22.62701368      35.82610499
Zn       1.83700347      24.51259815      33.94052052
Zn       1.83700347      26.39818263       1.88558447
Zn       1.83700347      28.28376710       0.00000000
Zn       1.83700347      26.39818263       5.65675342
Zn       1.83700347      28.28376710       3.77116895
Zn       1.83700347      26.39818263       9.42792236
Zn       1.83700347      28.28376710       7.54233789
Zn       1.83700347      26.39818263      13.19909131
Zn       1.83700347      28.28376710      11.31350684
Zn       1.83700347      26.39818263      16.97026026
Zn       1.83700347      28.28376710      15.08467579
Zn       1.83700347      26.39818263      20.74142921
Zn       1.83700347      28.28376710      18.85584474
Zn       1.83700347      26.39818263      24.51259815
Zn       1.83700347      28.28376710      22.62701368
Zn       1.83700347      26.39818263      28.28376710
Zn       1.83700347      28.28376710      26.39818263
Zn       1.83700347      26.39818263      32.05493605
Zn       1.83700347      28.28376710      30.16935158
Zn       1.83700347      26.39818263      35.82610499
Zn       1.83700347      28.28376710      33.94052052
Zn       1.83700347      30.16935158       1.88558447
Zn       1.83700347      32.05493605       0.00000000
Zn       1.83700347      30.16935158       5.65675342
Zn       1.83700347      32.05493605       3.77116895
Zn       1.83700347      30.16935158       9.42792236
Zn       1.83700347      32.05493605       7.54233789
Zn       1.83700347      30.16935158      13.19909131
Zn       1.83700347      32.05493605      11.31350684
Zn       1.83700347      30.16935158      16.97026026
Zn       1.83700347      32.05493605      15.08467579
Zn       1.83700347      30.16935158      20.74142921
Zn       1.83700347      32.05493605      18.85584474
Zn       1.83700347      30.16935158      24.51259815
Zn       1.83700347      32.05493605      22.62701368
Zn       1.83700347      30.16935158      28.28376710
Zn       1.83700347      32.05493605      26.39818263
Zn       1.83700347      30.16935158      32.05493605
Zn       1.83700347      32.05493605      30.16935158
Zn       1.83700347      30.16935158      35.82610499
Zn       1.83700347      32.05493605      33.94052052
Zn       1.83700347      33.94052052       1.88558447
Zn       1.83700347      35.82610499       0.00000000
Zn       1.83700347      33.94052052       5.65675342
Zn       1.83700347      35.82610499       3.77116895
Zn       1.83700347      33.94052052       9.42792236
Zn       1.83700347      35.82610499       7.54233789
Zn       1.83700347      33.94052052      13.19909131
Zn       1.83700347      35.82610499      11.31350684
Zn       1.83700347      33.94052052      16.97026026
Zn       1.83700347      35.82610499      15.08467579
Zn       1.83700347      33.94052052      20.74142921
Zn       1.83700347      35.82610499      18.85584474
Zn       1.83700347      33.94052052      24.51259815
Zn       1.83700347      35.82610499      22.62701368
Zn       1.83700347      33.94052052      28.28376710
Zn       1.83700347      35.82610499      26.39818263
Zn       1.83700347      33.94052052      32.05493605
Zn       1.83700347      35.82610499      30.16935158
Zn       1.83700347      33.94052052      35.82610499
Zn       1.83700347      35.82610499      33.94052052
Zn       1.83700347      37.71168947       1.88558447
Zn       1.83700347      39.59727394       0.00000000
Zn       1.83700347      37.71168947       5.65675342
Zn       1.83700347      39.59727394       3.77116895
Zn       1.83700347      37.71168947       9.42792236
Zn       1.83700347      39.59727394       7.54233789
Zn       1.83700347      37.71168947      13.19909131
Zn       1.83700347      39.59727394      11.31350684
Zn       1.83700347      37.71168947      16.97026026
Zn       1.83700347      39.59727394      15.08467579
Zn       1.83700347      37.71168947      20.74142921
Zn       1.83700347      39.59727394      18.85584474
Zn       1.83700347      37.71168947      24.51259815
Zn       1.83700347      39.59727394      22.62701368
Zn       1.83700347      37.71168947      28.28376710
Zn       1.83700347      39.59727394      26.39818263
Zn       1.83700347      37.71168947      32.05493605
Zn       1.83700347      39.59727394      30.16935158
Zn       1.83700347      37.71168947      35.82610499
Zn       1.83700347      39.59727394      33.94052052
Zn       1.83700347      41.48285842       1.88558447
Zn       1.83700347      43.36844289       0.00000000
Zn       1.83700347      41.48285842       5.65675342
Zn       1.83700347      43.36844289       3.77116895
Zn       1.83700347      41.48285842       9.42792236
Zn       1.83700347      43.36844289       7.54233789
Zn       1.83700347      41.48285842      13.19909131
Zn       1.83700347      43.36844289      11.31350684
Zn       1.83700347      41.48285842      16.97026026
Zn       1.83700347      43.36844289      15.08467579
Zn       1.83700347      41.48285842      20.74142921
Zn       1.83700347      43.36844289      18.85584474
Zn       1.83700347      41.48285842      24.51259815
Zn       1.83700347      43.36844289      22.62701368
Zn       1.83700347      41.48285842      28.28376710
Zn       1.83700347      43.36844289      26.39818263
Zn       1.83700347      41.48285842      32.05493605
Zn       1.83700347      43.36844289      30.16935158
Zn       1.83700347      41.48285842      35.82610499
Zn       1.83700347      43.36844289      33.94052052
Zn       1.83700347      45.25402737       1.88558447
Zn       1.83700347      47.13961184       0.00000000
Zn       1.83700347      45.25402737       5.65675342
Zn       1.83700347      47.13961184       3.77116895
Zn       1.83700347      45.25402737       9.42792236
Zn       1.83700347      47.13961184       7.54233789
Zn       1.83700347      45.25402737      13.19909131
Zn       1.83700347      47.13961184      11.31350684
Zn       1.83700347      45.25402737      16.97026026
Zn       1.83700347      47.13961184      15.08467579
Zn       1.83700347      45.25402737      20.74142921
Zn       1.83700347      47.13961184      18.85584474
Zn       1.83700347      45.25402737      24.51259815
Zn       1.83700347      47.13961184      22.62701368
Zn       1.83700347      45.25402737      28.28376710
Zn       1.83700347      47.13961184      26.39818263
Zn       1.83700347      45.25402737      32.05493605
Zn       1.83700347      47.13961184      30.16935158
Zn       1.83700347      45.25402737      35.82610499
Zn       1.83700347      47.13961184      33.94052052
Zn       1.83700347      49.02519631       1.88558447
Zn       1.83700347      50.91078078       0.00000000
Zn       1.83700347      49.02519631       5.65675342
Zn       1.83700347      50.91078078       3.77116895
Zn       1.83700347      49.02519631       9.42792236
Zn       1.83700347      50.91078078       7.54233789
Zn       1.83700347      49.02519631      13.19909131
Zn       1.83700347      50.91078078      11.31350684
Zn       1.83700347      49.02519631      16.97026026
Zn       1.83700347      50.91078078      15.08467579
Zn       1.83700347      49.02519631      20.74142921
Zn       1.83700347      50.91078078      18.85584474
Zn       1.83700347      49.02519631      24.51259815
Zn       1.83700347      50.91078078      22.62701368
Zn       1.83700347      49.02519631      28.28376710
Zn       1.83700347      50.91078078      26.39818263
Zn       1.83700347      49.02519631      32.05493605
Zn       1.83700347      50.91078078      30.16935158
Zn       1.83700347      49.02519631      35.82610499
Zn       1.83700347      50.91078078      33.94052052
Zn       1.83700347      52.79636526       1.88558447
Zn       1.83700347      54.68194973       0.00000000
Zn       1.83700347      52.79636526       5.65675342
Zn       1.83700347      54.68194973       3.77116895
Zn       1.83700347      52.79636526       9.42792236
Zn       1.83700347      54.68194973       7.54233789
Zn       1.83700347      52.79636526      13.19909131
Zn       1.83700347      54.68194973      11.31350684
Zn       1.83700347      52.79636526      16.97026026
Zn       1.83700347      54.68194973      15.08467579
Zn       1.83700347      52.79636526      20.74142921
Zn       1.83700347      54.68194973      18.85584474
Zn       1.83700347      52.79636526      24.51259815
Zn       1.83700347      54.68194973      22.62701368
Zn       1.83700347      52.79636526      28.28376710
Zn       1.83700347      54.68194973      26.39818263
Zn       1.83700347      52.79636526      32.05493605
Zn       1.83700347      54.68194973      30.16935158
Zn       1.83700347      52.79636526      35.82610499
Zn       1.83700347      54.68194973      33.94052052
Zn       1.83700347      56.56753421       1.88558447
Zn       1.83700347      58.45311868       0.00000000
Zn       1.83700347      56.56753421       5.65675342
Zn       1.83700347      58.45311868       3.77116895
Zn       1.83700347      56.56753421       9.42792236
Zn       1.83700347      58.45311868       7.54233789
Zn       1.83700347      56.56753421      13.19909131
Zn       1.83700347      58.45311868      11.31350684
Zn       1.83700347      56.56753421      16.97026026
Zn       1.83700347      58.45311868      15.08467579
Zn       1.83700347      56.56753421      20.74142921
Zn       1.83700347      58.45311868      18.85584474
Zn       1.83700347      56.56753421      24.51259815
Zn       1.83700347      58.45311868      22.62701368
Zn       1.83700347      56.56753421      28.28376710
Zn       1.83700347      58.45311868      26.39818263
Zn       1.83700347      56.56753421      32.05493605
Zn       1.83700347      58.45311868      30.16935158
Zn       1.83700347      56.56753421      35.82610499
Zn       1.83700347      58.45311868      33.94052052
Zn       5.51101041       0.00000000       1.88558447
Zn       5.51101041       1.88558447       0.00000000
Zn       5.51101041       0.00000000       5.65675342
Zn       5.51101041       1.88558447       3.77116895
Zn       5.51101041       0.00000000       9.42792236
Zn       5.51101041       1.88558447       7.54233789
Zn       5.51101041       0.00000000      13.19909131
Zn       5.51101041       1.88558447      11.31350684
Zn       5.51101041       0.00000000      16.97026026
Zn       5.51101041       1.88558447      15.08467579
Zn       5.51101041       0.00000000      20.74142921
Zn       5.51101041       1.88558447      18.85584474
Zn       5.51101041       0.00000000      24.51259815
Zn       5.51101041       1.88558447      22.62701368
Zn       5.51101041       0.00000000      28.28376710
Zn       5.51101041       1.88558447      26.39818263
Zn       5.51101041       0.00000000      32.05493605
Zn       5.51101041       1.88558447      30.16935158
Zn       5.51101041       0.00000000      35.82610499
Zn       5.51101041       1.88558447      33.94052052
Zn       5.51101041       3.77116895       1.88558447
Zn       5.51101041       5.65675342       0.00000000
Zn       5.51101041       3.77116895       5.65675342
Zn       5.51101041       5.65675342       3.77116895
Zn       5.51101041       3.77116895       9.42792236
Zn       5.51101041       5.65675342       7.54233789
Zn       5.51101041       3.77116895      13.19909131
Zn       5.51101041       5.65675342      11.31350684
Zn       5.51101041       3.77116895      16.97026026
Zn       5.51101041       5.65675342      15.08467579
Zn       5.51101041       3.77116895      20.74142921
Zn       5.51101041       5.65675342      18.85584474
Zn       5.51101041       3.77116895      24.51259815
Zn       5.51101041       5.65675342      22.62701368
Zn       5.51101041       3.77116895      28.28376710
Zn       5.51101041       5.65675342      26.39818263
Zn       5.51101041       3.77116895      32.05493605
Zn       5.51101041       5.65675342      30.16935158
Zn       5.51101041       3.77116895      35.82610499
Zn       5.51101041       5.65675342      33.94052052
Zn       5.51101041       7.54233789       1.88558447
Zn       5.51101041       9.42792236       0.00000000
Zn       5.51101041       7.54233789       5.65675342
Zn       5.51101041       9.42792236       3.77116895
Zn       5.51101041       7.54233789       9.42792236
Zn       5.51101041       9.42792236       7.54233789
Zn       5.51101041       7.54233789      13.19909131
Zn       5.51101041       9.42792236      11.31350684
Zn       5.51101041       7.54233789      16.97026026
Zn       5.51101041       9.42792236      15.08467579
Zn       5.51101041       7.54233789      20.74142921
Zn       5.51101041       9.42792236      18.85584474
Zn       5.51101041       7.54233789      24.51259815
Zn       5.51101041       9.42792236      22.62701368
Zn       5.51101041       7.54233789      28.28376710
Zn       5.51101041       9.42792236      26.39818263
Zn       5.51101041       7.54233789      32.05493605
Zn       5.51101041       9.42792236      30.16935158
Zn       5.51101041       7.54233789      35.82610499
Zn       5.51101041       9.42792236      33.94052052
Zn       5.51101041      11.31350684       1.88558447
Zn       5.51101041      13.19909131       0.00000000
Zn       5.51101041      11.31350684       5.65675342
Zn       5.51101041      13.19909131       3.77116895
Zn       5.51101041      11.31350684       9.42792236
Zn       5.51101041      13.19909131       7.54233789
Zn       5.51101041      11.31350684      13.19909131
Zn       5.51101041      13.19909131      11.31350684
Zn       5.51101041      11.31350684      16.97026026
Zn       5.51101041      13.19909131      15.08467579
Zn       5.51101041      11.31350684      20.74142921
Zn       5.51101041      13.19909131      18.85584474
Zn       5.51101041      11.31350684      24.51259815
Zn       5.51101041      13.19909131      22.62701368
Zn       5.51101041      11.31350684      28.28376710
Zn       5.51101041      13.19909131      26.39818263
Zn       5.51101041      11.31350684      32.05493605
Zn       5.51101041      13.19909131      30.16935158
Zn       5.51101041      11.31350684      35.82610499
Zn       5.51101041      13.19909131      33.94052052
Zn       5.51101041      15.08467579       1.88558447
Zn       5.51101041      16.97026026       0.00000000
Zn       5.51101041      15.08467579       5.65675342
Zn       5.51101041      16.97026026       3.77116895
Zn       5.51101041      15.08467579       9.42792236
Zn       5.51101041      16.97026026       7.54233789
Zn       5.51101041      15.08467579      13.19909131
Zn       5.51101041      16.97026026      11.31350684
Zn       5.51101041      15.08467579      16.97026026
Zn       5.51101041      16.97026026      15.08467579
Zn       5.51101041      15.08467579      20.74142921
Zn       5.51101041      16.97026026      18.85584474
Zn       5.51101041      15.08467579      24.51259815
Zn       5.51101041      16.97026026      22.62701368
Zn       5.51101041      15.08467579      28.28376710
Zn       5.51101041      16.97026026      26.39818263
Zn       5.51101041      15.08467579      32.05493605
Zn       5.51101041      16.97026026      30.16935158
Zn       5.51101041      15.08467579      35.82610499
Zn       5.51101041      16.97026026      33.94052052
Zn       5.51101041      18.85584474       1.88558447
Zn       5.51101041      20.74142921       0.00000000
Zn       5.51101041      18.85584474       5.65675342
Zn       5.51101041      20.74142921       3.77116895
Zn       5.51101041      18.85584474       9.42792236
Zn       5.51101041      20.74142921       7.54233789
Zn       5.51101041      18.85584474      13.19909131
Zn       5.51101041      20.74142921      11.31350684
Zn       5.51101041      18.85584474      16.97026026
Zn       5.51101041      20.74142921      15.08467579
Zn       5.51101041      18.85584474      20.74142921
Zn       5.51101041      20.74142921      18.85584474
Zn       5.51101041      18.85584474      24.51259815
Zn       5.51101041      20.74142921      22.62701368
Zn       5.51101041      18.85584474      28.28376710
Zn       5.51101041      20.74142921      26.39818263
Zn       5.51101041      18.85584474      32.05493605
Zn       5.51101041      20.74142921      30.16935158
Zn       5.51101041      18.85584474      35.82610499
Zn       5.51101041      20.74142921      33.94052052
Zn       5.51101041      22.62701368       1.88558447
Zn       5.51101041      24.51259815       0.00000000
Zn       5.51101041      22.62701368       5.65675342
Zn       5.51101041      24.51259815       3.77116895
Zn       5.51101041      22.62701368       9.42792236
Zn       5.51101041      24.51259815       7.54233789
Zn       5.51101041      22.62701368      13.19909131
Zn       5.51101041      24.51259815      11.31350684
Zn       5.51101041      22.62701368      16.97026026
Zn       5.51101041      24.51259815      15.08467579
Zn       5.51101041      22.62701368      20.74142921
Zn       5.51101041      24.51259815      18.85584474
Zn       5.51101041      22.62701368      24.51259815
Zn       5.51101041      24.51259815      22.62701368
Zn       5.51101041      22.62701368      28.28376710
Zn       5.51101041      24.51259815      26.39818263
Zn       5.51101041      22.62701368      32.05493605
Zn       5.51101041      24.51259815      30.16935158
Zn       5.51101041      22.62701368      35.82610499
Zn       5.51101041      24.51259815      33.94052052
Zn       5.51101041      26.39818263       1.88558447
Zn       5.51101041      28.28376710       0.00000000
Zn       5.51101041      26.39818263       5.65675342
Zn       5.51101041      28.28376710       3.77116895
Zn       5.51101041      26.39818263       9.42792236
Zn       5.51101041      28.28376710       7.54233789
Zn       5.51101041      26.39818263      13.19909131
Zn       5.51101041      28.28376710      11.31350684
Zn       5.51101041      26.39818263      16.97026026
Zn       5.51101041      28.28376710      15.08467579
Zn       5.51101041      26.39818263      20.74142921
Zn       5.51101041      28.28376710      18.85584474
Zn       5.51101041      26.39818263      24.51259815
Zn       5.51101041      28.28376710      22.62701368
Zn       5.51101041      26.39818263      28.28376710
Zn       5.51101041      28.28376710      26.39818263
Zn       5.51101041      26.39818263      32.05493605
Zn       5.51101041      28.28376710      30.16935158
Zn       5.51101041      26.39818263      35.82610499
Zn       5.51101041      28.28376710      33.94052052
Zn       5.51101041      30.16935158       1.88558447
Zn       5.51101041      32.05493605       0.00000000
Zn       5.51101041      30.16935158       5.65675342
Zn       5.51101041      32.05493605       3.77116895
Zn       5.51101041      30.16935158       9.42792236
Zn       5.51101041      32.05493605       7.54233789
Zn       5.51101041      30.16935158      13.19909131
Zn       5.51101041      32.05493605      11.31350684
Zn       5.51101041      30.16935158      16.97026026
Zn       5.51101041      32.05493605      15.08467579
Zn       5.51101041      30.16935158      20.74142921
Zn       5.51101041      32.05493605      18.85584474
Zn       5.51101041      30.16935158      24.51259815
Zn       5.51101041      32.05493605      22.62701368
Zn       5.51101041      30.16935158      28.28376710
Zn       5.51101041      32.05493605      26.39818263
Zn       5.51101041      30.16935158      32.05493605
Zn       5.51101041      32.05493605      30.16935158
Zn       5.51101041      30.16935158      35.82610499
Zn       5.51101041      32.05493605      33.94052052
Zn       5.51101041      33.94052052       1.88558447
Zn       5.51101041      35.82610499       0.00000000
Zn       5.51101041      33.94052052       5.65675342
Zn       5.51101041      35.82610499       3.77116895
Zn       5.51101041      33.94052052       9.42792236
Zn       5.51101041      35.82610499       7.54233789
Zn       5.51101041      33.94052052      13.19909131
Zn       5.51101041      35.82610499      11.31350684
Zn       5.51101041      33.94052052      16.97026026
Zn       5.51101041      35.82610499      15.08467579
Zn       5.51101041      33.94052052      20.74142921
Zn       5.51101041      35.82610499      18.85584474
Zn       5.51101041      33.94052052      24.51259815
Zn       5.51101041      35.82610499      22.62701368
Zn       5.51101041      33.94052052      28.28376710
Zn       5.51101041      35.82610499      26.39818263
Zn       5.51101041      33.94052052      32.05493605
Zn       5.51101041      35.82610499      30.16935158
Zn       5.51101041      33.94052052      35.82610499
Zn       5.51101041      35.82610499      33.94052052
Zn       5.51101041      37.71168947       1.88558447
Zn       5.51101041      39.59727394       0.00000000
Zn       5.51101041      37.71168947       5.65675342
Zn       5.51101041      39.59727394       3.77116895
Zn       5.51101041      37.71168947       9.42792236
Zn       5.51101041      39.59727394       7.54233789
Zn       5.51101041      37.71168947      13.19909131
Zn       5.51101041      39.59727394      11.31350684
Zn       5.51101041      37.71168947      16.97026026
Zn       5.51101041      39.59727394      15.08467579
Zn       5.51101041      37.71168947      20.74142921
Zn       5.51101041      39.59727394      18.85584474
Zn       5.51101041      37.71168947      24.51259815
Zn       5.51101041      39.59727394      22.62701368
Zn       5.51101041      37.71168947      28.28376710
Zn       5.51101041      39.59727394      26.39818263
Zn       5.51101041      37.71168947      32.05493605
Zn       5.51101041      39.59727394      30.16935158
Zn       5.51101041      37.71168947      35.82610499
Zn       5.51101041      39.59727394      33.94052052
Zn       5.51101041      41.48285842       1.88558447
Zn       5.51101041      43.36844289       0.00000000
Zn       5.51101041      41.48285842       5.65675342
Zn       5.51101041      43.36844289       3.77116895
Zn       5.51101041      41.48285842       9.42792236
Zn       5.51101041      43.36844289       7.54233789
Zn       5.51101041      41.48285842      13.19909131
Zn       5.51101041      43.36844289      11.31350684
Zn       5.51101041      41.48285842      16.97026026
Zn       5.51101041      43.36844289      15.08467579
Zn       5.51101041      41.48285842      20.74142921
Zn       5.51101041      43.36844289      18.85584474
Zn       5.51101041      41.48285842      24.51259815
Zn       5.51101041      43.36844289      22.62701368
Zn       5.51101041      41.48285842      28.28376710
Zn       5.51101041      43.36844289      26.39818263
Zn       5.51101041      41.48285842      32.05493605
Zn       5.51101041      43.36844289      30.16935158
Zn       5.51101041      41.48285842      35.82610499
Zn       5.51101041      43.36844289      33.94052052
Zn       5.51101041      45.25402737       1.88558447
Zn       5.51101041      47.13961184       0.00000000
Zn       5.51101041      45.25402737       5.65675342
Zn       5.51101041      47.13961184       3.77116895
Zn       5.51101041      45.25402737       9.42792236
Zn       5.51101041      47.13961184       7.54233789
Zn       5.51101041      45.25402737      13.19909131
Zn       5.51101041      47.13961184      11.31350684
Zn       5.51101041      45.25402737      16.97026026
Zn       5.51101041      47.13961184      15.08467579
Zn       5.51101041      45.25402737      20.74142921
Zn       5.51101041      47.13961184      18.85584474
Zn       5.51101041      45.25402737      24.51259815
Zn       5.51101041      47.13961184      22.62701368
Zn       5.51101041      45.25402737      28.28376710
Zn       5.51101041      47.13961184      26.39818263
Zn       5.51101041      45.25402737      32.05493605
Zn       5.51101041      47.13961184      30.16935158
Zn       5.51101041      45.25402737      35.82610499
Zn       5.51101041      47.13961184      33.94052052
Zn       5.51101041      49.02519631       1.88558447
Zn       5.51101041      50.91078078       0.00000000
Zn       5.51101041      49.02519631       5.65675342
Zn       5.51101041      50.91078078       3.77116895
Zn       5.51101041      49.02519631       9.42792236
Zn       5.51101041      50.91078078       7.54233789
Zn       5.51101041      49.02519631      13.19909131
Zn       5.51101041      50.91078078      11.31350684
Zn       5.51101041      49.02519631      16.97026026
Zn       5.51101041      50.91078078      15.08467579
Zn       5.51101041      49.02519631      20.74142921
Zn       5.51101041      50.91078078      18.85584474
Zn       5.51101041      49.02519631      24.51259815
Zn       5.51101041      50.91078078      22.62701368
Zn       5.51101041      49.02519631      28.28376710
Zn       5.51101041      50.91078078      26.39818263
Zn       5.51101041      49.02519631      32.05493605
Zn       5.51101041      50.91078078      30.16935158
Zn       5.51101041      49.02519631      35.82610499
Zn       5.51101041      50.91078078      33.94052052
Zn       5.51101041      52.79636526       1.88558447
Zn       5.51101041      54.68194973       0.00000000
Zn       5.51101041      52.79636526       5.65675342
Zn       5.51101041      54.68194973       3.77116895
Zn       5.51101041      52.79636526       9.42792236
Zn       5.51101041      54.68194973       7.54233789
Zn       5.51101041      52.79636526      13.19909131
Zn       5.51101041      54.68194973      11.31350684
Zn       5.51101041      52.79636526      16.97026026
Zn       5.51101041      54.68194973      15.08467579
Zn       5.51101041      52.79636526      20.74142921
Zn       5.51101041      54.68194973      18.85584474
Zn       5.51101041      52.79636526      24.51259815
Zn       5.51101041      54.68194973      22.62701368
Zn       5.51101041      52.79636526      28.28376710
Zn       5.51101041      54.68194973      26.39818263
Zn       5.51101041      52.79636526      32.05493605
Zn       5.51101041      54.68194973      30.16935158
Zn       5.51101041      52.79636526      35.82610499
Zn       5.51101041      54.68194973      33.94052052
Zn       5.51101041      56.56753421       1.88558447
Zn       5.51101041      58.45311868       0.00000000
Zn       5.51101041      56.56753421       5.65675342
Zn       5.51101041      58.45311868       3.77116895
Zn       5.51101041      56.56753421       9.42792236
Zn       5.51101041      58.45311868       7.54233789
Zn       5.51101041      56.56753421      13.19909131
Zn       5.51101041      58.45311868      11.31350684
Zn       5.51101041      56.56753421      16.97026026
Zn       5.51101041      58.45311868      15.08467579
Zn       5.51101041      56.56753421      20.74142921
Zn       5.51101041      58.45311868      18.85584474
Zn       5.51101041      56.56753421      24.51259815
Zn       5.51101041      58.45311868      22.62701368
Zn       5.51101041      56.56753421      28.28376710
Zn       5.51101041      58.45311868      26.39818263
Zn       5.51101041      56.56753421      32.05493605
Zn       5.51101041      58.45311868      30.16935158
Zn       5.51101041      56.56753421      35.82610499
Zn       5.51101041      58.45311868      33.94052052
Zn       9.18501735       0.00000000       1.88558447
Zn       9.18501735       1.88558447       0.00000000
Zn       9.18501735       0.00000000       5.65675342
Zn       9.18501735       1.88558447       3.77116895
Zn       9.18501735       0.00000000       9.42792236
Zn       9.18501735       1.88558447       7.54233789
Zn       9.18501735       0.00000000      13.19909131
Zn       9.18501735       1.88558447      11.31350684
Zn       9.18501735       0.00000000      16.97026026
Zn       9.18501735       1.88558447      15.08467579
Zn       9.18501735       0.00000000      20.74142921
Zn       9.18501735       1.88558447      18.85584474
Zn       9.18501735       0.00000000      24.51259815
Zn       9.18501735       1.88558447      22.62701368
Zn       9.18501735       0.00000000      28.28376710
Zn       9.18501735       1.88558447      26.39818263
Zn       9.18501735       0.00000000      32.05493605
Zn       9.18501735       1.88558447      30.16935158
Zn       9.18501735       0.00000000      35.82610499
Zn       9.18501735       1.88558447      33.94052052
Zn       9.18501735       3.77116895       1.88558447
Zn       9.18501735       5.65675342       0.00000000
Zn       9.18501735       3.77116895       5.65675342
Zn       9.18501735       5.65675342       3.77116895
Zn       9.18501735       3.77116895       9.42792236
Zn       9.18501735       5.65675342       7.54233789
Zn       9.18501735       3.77116895      13.19909131
Zn       9.18501735       5.65675342      11.31350684
Zn       9.18501735       3.77116895      16.97026026
Zn       9.18501735       5.65675342      15.08467579
Zn       9.18501735       3.77116895      20.74142921
Zn       9.18501735       5.65675342      18.85584474
Zn       9.18501735       3.77116895      24.51259815
Zn       9.18501735       5.65675342      22.62701368
Zn       9.18501735       3.77116895      28.28376710
Zn       9.18501735       5.65675342      26.39818263
Zn       9.18501735       3.77116895      32.05493605
Zn       9.18501735       5.65675342      30.16935158
Zn       9.18501735       3.77116895      35.82610499
Zn       9.18501735       5.65675342      33.94052052
Zn       9.18501735       7.54233789       1.88558447
Zn       9.18501735       9.42792236       0.00000000
Zn       9.18501735       7.54233789       5.65675342
Zn       9.18501735       9.42792236       3.77116895
Zn       9.18501735       7.54233789       9.42792236
Zn       9.18501735       9.42792236       7.54233789
Zn       9.18501735       7.54233789      13.19909131
Zn       9.18501735       9.42792236      11.31350684
Zn       9.18501735       7.54233789      16.97026026
Zn       9.18501735       9.42792236      15.08467579
Zn       9.18501735       7.54233789      20.74142921
Zn       9.18501735       9.42792236      18.85584474
Zn       9.18501735       7.54233789      24.51259815
Zn       9.18501735       9.42792236      22.62701368
Zn       9.18501735       7.54233789      28.28376710
Zn       9.18501735       9.42792236      26.39818263
Zn       9.18501735       7.54233789      32.05493605
Zn       9.18501735       9.42792236      30.16935158
Zn       9.18501735       7.54233789      35.82610499
Zn       9.18501735       9.42792236      33.94052052
Zn       9.18501735      11.31350684       1.88558447
Zn       9.18501735      13.19909131       0.00000000
Zn       9.18501735      11.31350684       5.65675342
Zn       9.18501735      13.19909131       3.77116895
Zn       9.18501735      11.31350684       9.42792236
Zn       9.18501735      13.19909131       7.54233789
Zn       9.18501735      11.31350684      13.19909131
Zn       9.18501735      13.19909131      11.31350684
Zn       9.18501735      11.31350684      16.97026026
Zn       9.18501735      13.19909131      15.08467579
Zn       9.18501735      11.31350684      20.74142921
Zn       9.18501735      13.19909131      18.85584474
Zn       9.18501735      11.31350684      24.51259815
Zn       9.18501735      13.19909131      22.62701368
Zn       9.18501735      11.31350684      28.28376710
Zn       9.18501735      13.19909131      26.39818263
Zn       9.18501735      11.31350684      32.05493605
Zn       9.18501735      13.19909131      30.16935158
Zn       9.18501735      11.31350684      35.82610499
Zn       9.18501735      13.19909131      33.94052052
Zn       9.18501735      15.08467579       1.88558447
Zn       9.18501735      16.97026026       0.00000000
Zn       9.18501735      15.08467579       5.65675342
Zn       9.18501735      16.97026026       3.77116895
Zn       9.18501735      15.08467579       9.42792236
Zn       9.18501735      16.97026026       7.54233789
Zn       9.18501735      15.08467579      13.19909131
Zn       9.18501735      16.97026026      11.31350684
Zn       9.18501735      15.08467579      16.97026026
Zn       9.18501735      16.97026026      15.08467579
Zn       9.18501735      15.08467579      20.74142921
Zn       9.18501735      16.97026026      18.85584474
Zn       9.18501735      15.08467579      24.51259815
Zn       9.18501735      16.97026026      22.62701368
Zn       9.18501735      15.08467579      28.28376710
Zn       9.18501735      16.97026026      26.39818263
Zn       9.18501735      15.08467579      32.05493605
Zn       9.18501735      16.97026026      30.16935158
Zn       9.18501735      15.08467579      35.82610499
Zn       9.18501735      16.97026026      33.94052052
Zn       9.18501735      18.85584474       1.88558447
Zn       9.18501735      20.74142921       0.00000000
Zn       9.18501735      18.85584474       5.65675342
Zn       9.18501735      20.74142921       3.77116895
Zn       9.18501735      18.85584474       9.42792236
Zn       9.18501735      20.74142921       7.54233789
Zn       9.18501735      18.85584474      13.19909131
Zn       9.18501735      20.74142921      11.31350684
Zn       9.18501735      18.85584474      16.97026026
Zn       9.18501735      20.74142921      15.08467579
Zn       9.18501735      18.85584474      20.74142921
Zn       9.18501735      20.74142921      18.85584474
Zn       9.18501735      18.85584474      24.51259815
Zn       9.18501735      20.74142921      22.62701368
Zn       9.18501735      18.85584474      28.28376710
Zn       9.18501735      20.74142921      26.39818263
Zn       9.18501735      18.85584474      32.05493605
Zn       9.18501735      20.74142921      30.16935158
Zn       9.18501735      18.85584474      35.82610499
Zn       9.18501735      20.74142921      33.94052052
Zn       9.18501735      22.62701368       1.88558447
Zn       9.18501735      24.51259815       0.00000000
Zn       9.18501735      22.62701368       5.65675342
Zn       9.18501735      24.51259815       3.77116895
Zn       9.18501735      22.62701368       9.42792236
Zn       9.18501735      24.51259815       7.54233789
Zn       9.18501735      22.62701368      13.19909131
Zn       9.18501735      24.51259815      11.31350684
Zn       9.18501735      22.62701368      16.97026026
Zn       9.18501735      24.51259815      15.08467579
Zn       9.18501735      22.62701368      20.74142921
Zn       9.18501735      24.51259815      18.85584474
Zn       9.18501735      22.62701368      24.51259815
Zn       9.18501735      24.51259815      22.62701368
Zn       9.18501735      22.62701368      28.28376710
Zn       9.18501735      24.51259815      26.39818263
Zn       9.18501735      22.62701368      32.05493605
Zn       9.18501735      24.51259815      30.16935158
Zn       9.18501735      22.62701368      35.82610499
Zn       9.18501735      24.51259815      33.94052052
Zn       9.18501735      26.39818263       1.88558447
Zn       9.18501735      28.28376710       0.00000000
Zn       9.18501735      26.39818263       5.65675342
Zn       9.18501735      28.28376710       3.77116895
Zn       9.18501735      26.39818263       9.42792236
Zn       9.18501735      28.28376710       7.54233789
Zn       9.18501735      26.39818263      13.19909131
Zn       9.18501735      28.28376710      11.31350684
Zn       9.18501735      26.39818263      16.97026026
Zn       9.18501735      28.28376710      15.08467579
Zn       9.18501735      26.39818263      20.74142921
Zn       9.18501735      28.28376710      18.85584474
Zn       9.18501735      26.39818263      24.51259815
Zn       9.18501735      28.28376710      22.62701368
Zn       9.18501735      26.39818263      28.28376710
Zn       9.18501735      28.28376710      26.39818263
Zn       9.18501735      26.39818263      32.05493605
Zn       9.18501735      28.28376710      30.16935158
Zn       9.18501735      26.39818263      35.82610499
Zn       9.18501735      28.28376710      33.94052052
Zn       9.18501735      30.16935158       1.88558447
Zn       9.18501735      32.05493605       0.00000000
Zn       9.18501735      30.16935158       5.65675342
Zn       9.18501735      32.05493605       3.77116895
Zn       9.18501735      30.16935158       9.42792236
Zn       9.18501735      32.05493605       7.54233789
Zn       9.18501735      30.16935158      13.19909131
Zn       9.18501735      32.05493605      11.31350684
Zn       9.18501735      30.16935158      16.97026026
Zn       9.18501735      32.05493605      15.08467579
Zn       9.18501735      30.16935158      20.74142921
Zn       9.18501735      32.05493605      18.85584474
Zn       9.18501735      30.16935158      24.51259815
Zn       9.18501735      32.05493605      22.62701368
Zn       9.18501735      30.16935158      28.28376710
Zn       9.18501735      32.05493605      26.39818263
Zn       9.18501735      30.16935158      32.05493605
Zn       9.18501735      32.05493605      30.16935158
Zn       9.18501735      30.16935158      35.82610499
Zn       9.18501735      32.05493605      33.94052052
Zn       9.18501735      33.94052052       1.88558447
Zn       9.18501735      35.82610499       0.00000000
Zn       9.18501735      33.94052052       5.65675342
Zn       9.18501735      35.82610499       3.77116895
Zn       9.18501735      33.94052052       9.42792236
Zn       9.18501735      35.82610499       7.54233789
Zn       9.18501735      33.94052052      13.19909131
Zn       9.18501735      35.82610499      11.31350684
Zn       9.18501735      33.94052052      16.97026026
Zn       9.18501735      35.82610499      15.08467579
Zn       9.18501735      33.94052052      20.74142921
Zn       9.18501735      35.82610499      18.85584474
Zn       9.18501735      33.94052052      24.51259815
Zn       9.18501735      35.82610499      22.62701368
Zn       9.18501735      33.94052052      28.28376710
Zn       9.18501735      35.82610499      26.39818263
Zn       9.18501735      33.94052052      32.05493605
Zn       9.18501735      35.82610499      30.16935158
Zn       9.18501735      33.94052052      35.82610499
Zn       9.18501735      35.82610499      33.94052052
Zn       9.18501735      37.71168947       1.88558447
Zn       9.18501735      39.59727394       0.00000000
Zn       9.18501735      37.71168947       5.65675342
Zn       9.18501735      39.59727394       3.77116895
Zn       9.18501735      37.71168947       9.42792236
Zn       9.18501735      39.59727394       7.54233789
Zn       9.18501735      37.71168947      13.19909131
Zn       9.18501735      39.59727394      11.31350684
Zn       9.18501735      37.71168947      16.97026026
Zn       9.18501735      39.59727394      15.08467579
Zn       9.18501735      37.71168947      20.74142921
Zn       9.18501735      39.59727394      18.85584474
Zn       9.18501735      37.71168947      24.51259815
Zn       9.18501735      39.59727394      22.62701368
Zn       9.18501735      37.71168947      28.28376710
Zn       9.18501735      39.59727394      26.39818263
Zn       9.18501735      37.71168947      32.05493605
Zn       9.18501735      39.59727394      30.16935158
Zn       9.18501735      37.71168947      35.82610499
Zn       9.18501735      39.59727394      33.94052052
Zn       9.18501735      41.48285842       1.88558447
Zn       9.18501735      43.36844289       0.00000000
Zn       9.18501735      41.48285842       5.65675342
Zn       9.18501735      43.36844289       3.77116895
Zn       9.18501735      41.48285842       9.42792236
Zn       9.18501735      43.36844289       7.54233789
Zn       9.18501735      41.48285842      13.19909131
Zn       9.18501735      43.36844289      11.31350684
Zn       9.18501735      41.48285842      16.97026026
Zn       9.18501735      43.36844289      15.08467579
Zn       9.18501735      41.48285842      20.74142921
Zn       9.18501735      43.36844289      18.85584474
Zn       9.18501735      41.48285842      24.51259815
Zn       9.18501735      43.36844289      22.62701368
Zn       9.18501735      41.48285842      28.28376710
Zn       9.18501735      43.36844289      26.39818263
Zn       9.18501735      41.48285842      32.05493605
Zn       9.18501735      43.36844289      30.16935158
Zn       9.18501735      41.48285842      35.82610499
Zn       9.18501735      43.36844289      33.94052052
Zn       9.18501735      45.25402737       1.88558447
Zn       9.18501735      47.13961184       0.00000000
Zn       9.18501735      45.25402737       5.65675342
Zn       9.18501735      47.13961184       3.77116895
Zn       9.18501735      45.25402737       9.42792236
Zn       9.18501735      47.13961184       7.54233789
Zn       9.18501735      45.25402737      13.19909131
Zn       9.18501735      47.13961184      11.31350684
Zn       9.18501735      45.25402737      16.97026026
Zn       9.18501735      47.13961184      15.08467579
Zn       9.18501735      45.25402737      20.74142921
Zn       9.18501735      47.13961184      18.85584474
Zn       9.18501735      45.25402737      24.51259815
Zn       9.18501735      47.13961184      22.62701368
Zn       9.18501735      45.25402737      28.28376710
Zn       9.18501735      47.13961184      26.39818263
Zn       9.18501735      45.25402737      32.05493605
Zn       9.18501735      47.13961184      30.16935158
Zn       9.18501735      45.25402737      35.82610499
Zn       9.18501735      47.13961184      33.94052052
Zn       9.18501735      49.02519631       1.88558447
Zn       9.18501735      50.91078078       0.00000000
Zn       9.18501735      49.02519631       5.65675342
Zn       9.18501735      50.91078078       3.77116895
Zn       9.18501735      49.02519631       9.42792236
Zn       9.18501735      50.91078078       7.54233789
Zn       9.18501735      49.02519631      13.19909131
Zn       9.18501735      50.91078078      11.31350684
Zn       9.18501735      49.02519631      16.97026026
Zn       9.18501735      50.91078078      15.08467579
Zn       9.18501735      49.02519631      20.74142921
Zn       9.18501735      50.91078078      18.85584474
Zn       9.18501735      49.02519631      24.51259815
Zn       9.18501735      50.91078078      22.62701368
Zn       9.18501735      49.02519631      28.28376710
Zn       9.18501735      50.91078078      26.39818263
Zn       9.18501735      49.02519631      32.05493605
Zn       9.18501735      50.91078078      30.16935158
Zn       9.18501735      49.02519631      35.82610499
Zn       9.18501735      50.91078078      33.94052052
Zn       9.18501735      52.79636526       1.88558447
Zn       9.18501735      54.68194973       0.00000000
Zn       9.18501735      52.79636526       5.65675342
Zn       9.18501735      54.68194973       3.77116895
Zn       9.18501735      52.79636526       9.42792236
Zn       9.18501735      54.68194973       7.54233789
Zn       9.18501735      52.79636526      13.19909131
Zn       9.18501735      54.68194973      11.31350684
Zn       9.18501735      52.79636526      16.97026026
Zn       9.18501735      54.68194973      15.08467579
Zn       9.18501735      52.79636526      20.74142921
Zn       9.18501735      54.68194973      18.85584474
Zn       9.18501735      52.79636526      24.51259815
Zn       9.18501735      54.68194973      22.62701368
Zn       9.18501735      52.79636526      28.28376710
Zn       9.18501735      54.68194973      26.39818263
Zn       9.18501735      52.79636526      32.05493605
Zn       9.18501735      54.68194973      30.16935158
Zn       9.18501735      52.79636526      35.82610499
Zn       9.18501735      54.68194973      33.94052052
Zn       9.18501735      56.56753421       1.88558447
Zn       9.18501735      58.45311868       0.00000000
Zn       9.18501735      56.56753421       5.65675342
Zn       9.18501735      58.45311868       3.77116895
Zn       9.18501735      56.56753421       9.42792236
Zn       9.18501735      58.45311868       7.54233789
Zn       9.18501735      56.56753421      13.19909131
Zn       9.18501735      58.45311868      11.31350684
Zn       9.18501735      56.56753421      16.97026026
Zn       9.18501735      58.45311868      15.08467579
Zn       9.18501735      56.56753421      20.74142921
Zn       9.18501735      58.45311868      18.85584474
Zn       9.18501735      56.56753421      24.51259815
Zn       9.18501735      58.45311868      22.62701368
Zn       9.18501735      56.56753421      28.28376710
Zn       9.18501735      58.45311868      26.39818263
Zn       9.18501735      56.56753421      32.05493605
Zn       9.18501735      58.45311868      30.16935158
Zn       9.18501735      56.56753421      35.82610499
Zn       9.18501735      58.45311868      33.94052052
Zn      12.85902429       0.00000000       1.88558447
Zn      12.85902429       1.88558447       0.00000000
Zn      12.85902429       0.00000000       5.65675342
Zn      12.85902429       1.88558447       3.77116895
Zn      12.85902429       0.00000000       9.42792236
Zn      12.85902429       1.88558447       7.54233789
Zn      12.85902429       0.00000000      13.19909131
Zn      12.85902429       1.88558447      11.31350684
Zn      12.85902429       0.00000000      16.97026026
Zn      12.85902429       1.88558447      15.08467579
Zn      12.85902429       0.00000000      20.74142921
Zn      12.85902429       1.88558447      18.85584474
Zn      12.85902429       0.00000000      24.51259815
Zn      12.85902429       1.88558447      22.62701368
Zn      12.85902429       0.00000000      28.28376710
Zn      12.85902429       1.88558447      26.39818263
Zn      12.85902429       0.00000000      32.05493605
Zn      12.85902429       1.88558447      30.16935158
Zn      12.85902429       0.00000000      35.82610499
Zn      12.85902429       1.88558447      33.94052052
Zn      12.85902429       3.77116895       1.88558447
Zn      12.85902429       5.65675342       0.00000000
Zn      12.85902429       3.77116895       5.65675342
Zn      12.85902429       5.65675342       3.77116895
Zn      12.85902429       3.77116895       9.42792236
Zn      12.85902429       5.65675342       7.54233789
Zn      12.85902429       3.77116895      13.19909131
Zn      12.85902429       5.65675342      11.31350684
Zn      12.85902429       3.77116895      16.97026026
Zn      12.85902429       5.65675342      15.08467579
Zn      12.85902429       3.77116895      20.74142921
Zn      12.85902429       5.65675342      18.85584474
Zn      12.85902429       3.77116895      24.51259815
Zn      12.85902429       5.65675342      22.62701368
Zn      12.85902429       3.77116895      28.28376710
Zn      12.85902429       5.65675342      26.39818263
Zn      12.85902429       3.77116895      32.05493605
Zn      12.85902429       5.65675342      30.16935158
Zn      12.85902429       3.77116895      35.82610499
Zn      12.85902429       5.65675342      33.94052052
Zn      12.85902429       7.54233789       1.88558447
Zn      12.85902429       9.42792236       0.00000000
Zn      12.85902429       7.54233789       5.65675342
Zn      12.85902429       9.42792236       3.77116895
Zn      12.85902429       7.54233789       9.42792236
Zn      12.85902429       9.42792236       7.54233789
Zn      12.85902429       7.54233789      13.19909131
Zn      12.85902429       9.42792236      11.31350684
Zn      12.85902429       7.54233789      16.97026026
Zn      12.85902429       9.42792236      15.08467579
Zn      12.85902429       7.54233789      20.74142921
Zn      12.85902429       9.42792236      18.85584474
Zn      12.85902429       7.54233789      24.51259815
Zn      12.85902429       9.42792236      22.62701368
Zn      12.85902429       7.54233789      28.28376710
Zn      12.85902429       9.42792236      26.39818263
Zn      12.85902429       7.54233789      32.05493605
Zn      12.85902429       9.42792236      30.16935158
Zn      12.85902429       7.54233789      35.82610499
Zn      12.85902429       9.42792236      33.94052052
Zn      12.85902429      11.31350684       1.88558447
Zn      12.85902429      13.19909131       0.00000000
Zn      12.85902429      11.31350684       5.65675342
Zn      12.85902429      13.19909131       3.77116895
Zn      12.85902429      11.31350684       9.42792236
Zn      12.85902429      13.19909131       7.54233789
Zn      12.85902429      11.31350684      13.19909131
Zn      12.85902429      13.19909131      11.31350684
Zn      12.85902429      11.31350684      16.97026026
Zn      12.85902429      13.19909131      15.08467579
Zn      12.85902429      11.31350684      20.74142921
Zn      12.85902429      13.19909131      18.85584474
Zn      12.85902429      11.31350684      24.51259815
Zn      12.85902429      13.19909131      22.62701368
Zn      12.85902429      11.31350684      28.28376710
Zn      12.85902429      13.19909131      26.39818263
Zn      12.85902429      11.31350684      32.05493605
Zn      12.85902429      13.19909131      30.16935158
Zn      12.85902429      11.31350684      35.82610499
Zn      12.85902429      13.19909131      33.94052052
Zn      12.85902429      15.08467579       1.88558447
Zn      12.85902429      16.97026026       0.00000000
Zn      12.85902429      15.08467579       5.65675342
Zn      12.85902429      16.97026026       3.77116895
Zn      12.85902429      15.08467579       9.42792236
Zn      12.85902429      16.97026026       7.54233789
Zn      12.85902429      15.08467579      13.19909131
Zn      12.85902429      16.97026026      11.31350684
Zn      12.85902429      15.08467579      16.97026026
Zn      12.85902429      16.97026026      15.08467579
Zn      12.85902429      15.08467579      20.74142921
Zn      12.85902429      16.97026026      18.85584474
Zn      12.85902429      15.08467579      24.51259815
Zn      12.85902429      16.97026026      22.62701368
Zn      12.85902429      15.08467579      28.28376710
Zn      12.85902429      16.97026026      26.39818263
Zn      12.85902429      15.08467579      32.05493605
Zn      12.85902429      16.97026026      30.16935158
Zn      12.85902429      15.08467579      35.82610499
Zn      12.85902429      16.97026026      33.94052052
Zn      12.85902429      18.85584474       1.88558447
Zn      12.85902429      20.74142921       0.00000000
Zn      12.85902429      18.85584474       5.65675342
Zn      12.85902429      20.74142921       3.77116895
Zn      12.85902429      18.85584474       9.42792236
Zn      12.85902429      20.74142921       7.54233789
Zn      12.85902429      18.85584474      13.19909131
Zn      12.85902429      20.74142921      11.31350684
Zn      12.85902429      18.85584474      16.97026026
Zn      12.85902429      20.74142921      15.08467579
Zn      12.85902429      18.85584474      20.74142921
Zn      12.85902429      20.74142921      18.85584474
Zn      12.85902429      18.85584474      24.51259815
Zn      12.85902429      20.74142921      22.62701368
Zn      12.85902429      18.85584474      28.28376710
Zn      12.85902429      20.74142921      26.39818263
Zn      12.85902429      18.85584474      32.05493605
Zn      12.85902429      20.74142921      30.16935158
Zn      12.85902429      18.85584474      35.82610499
Zn      12.85902429      20.74142921      33.94052052
Zn      12.85902429      22.62701368       1.88558447
Zn      12.85902429      24.51259815       0.00000000
Zn      12.85902429      22.62701368       5.65675342
Zn      12.85902429      24.51259815       3.77116895
Zn      12.85902429      22.62701368       9.42792236
Zn      12.85902429      24.51259815       7.54233789
Zn      12.85902429      22.62701368      13.19909131
Zn      12.85902429      24.51259815      11.31350684
Zn      12.85902429      22.62701368      16.97026026
Zn      12.85902429      24.51259815      15.08467579
Zn      12.85902429      22.62701368      20.74142921
Zn      12.85902429      24.51259815      18.85584474
Zn      12.85902429      22.62701368      24.51259815
Zn      12.85902429      24.51259815      22.62701368
Zn      12.85902429      22.62701368      28.28376710
Zn      12.85902429      24.51259815      26.39818263
Zn      12.85902429      22.62701368      32.05493605
Zn      12.85902429      24.51259815      30.16935158
Zn      12.85902429      22.62701368      35.82610499
Zn      12.85902429      24.51259815      33.94052052
Zn      12.85902429      26.39818263       1.88558447
Zn      12.85902429      28.28376710       0.00000000
Zn      12.85902429      26.39818263       5.65675342
Zn      12.85902429      28.28376710       3.77116895
Zn      12.85902429      26.39818263       9.42792236
Zn      12.85902429      28.28376710       7.54233789
Zn      12.85902429      26.39818263      13.19909131
Zn      12.85902429      28.28376710      11.31350684
Zn      12.85902429      26.39818263      16.97026026
Zn      12.85902429      28.28376710      15.08467579
Zn      12.85902429      26.39818263      20.74142921
Zn      12.85902429      28.28376710      18.85584474
Zn      12.85902429      26.39818263      24.51259815
Zn      12.85902429      28.28376710      22.62701368
Zn      12.85902429      26.39818263      28.28376710
Zn      12.85902429      28.28376710      26.39818263
Zn      12.85902429      26.39818263      32.05493605
Zn      12.85902429      28.28376710      30.16935158
Zn      12.85902429      26.39818263      35.82610499
Zn      12.85902429      28.28376710      33.94052052
Zn      12.85902429      30.16935158       1.88558447
Zn      12.85902429      32.05493605       0.00000000
Zn      12.85902429      30.16935158       5.65675342
Zn      12.85902429      32.05493605       3.77116895
Zn      12.85902429      30.16935158       9.42792236
Zn      12.85902429      32.05493605       7.54233789
Zn      12.85902429      30.16935158      13.19909131
Zn      12.85902429      32.05493605      11.31350684
Zn      12.85902429      30.16935158      16.97026026
Zn      12.85902429      32.05493605      15.08467579
Zn      12.85902429      30.16935158      20.74142921
Zn      12.85902429      32.05493605      18.85584474
Zn      12.85902429      30.16935158      24.51259815
Zn      12.85902429      32.05493605      22.62701368
Zn      12.85902429      30.16935158      28.28376710
Zn      12.85902429      32.05493605      26.39818263
Zn      12.85902429      30.16935158      32.05493605
Zn      12.85902429      32.05493605      30.16935158
Zn      12.85902429      30.16935158      35.82610499
Zn      12.85902429      32.05493605      33.94052052
Zn      12.85902429      33.94052052       1.88558447
Zn      12.85902429      35.82610499       0.00000000
Zn      12.85902429      33.94052052       5.65675342
Zn      12.85902429      35.82610499       3.77116895
Zn      12.85902429      33.94052052       9.42792236
Zn      12.85902429      35.82610499       7.54233789
Zn      12.85902429      33.94052052      13.19909131
Zn      12.85902429      35.82610499      11.31350684
Zn      12.85902429      33.94052052      16.97026026
Zn      12.85902429      35.82610499      15.08467579
Zn      12.85902429      33.94052052      20.74142921
Zn      12.85902429      35.82610499      18.85584474
Zn      12.85902429      33.94052052      24.51259815
Zn      12.85902429      35.82610499      22.62701368
Zn      12.85902429      33.94052052      28.28376710
Zn      12.85902429      35.82610499      26.39818263
Zn      12.85902429      33.94052052      32.05493605
Zn      12.85902429      35.82610499      30.16935158
Zn      12.85902429      33.94052052      35.82610499
Zn      12.85902429      35.82610499      33.94052052
Zn      12.85902429      37.71168947       1.88558447
Zn      12.85902429      39.59727394       0.00000000
Zn      12.85902429      37.71168947       5.65675342
Zn      12.85902429      39.59727394       3.77116895
Zn      12.85902429      37.71168947       9.42792236
Zn      12.85902429      39.59727394       7.54233789
Zn      12.85902429      37.71168947      13.19909131
Zn      12.85902429      39.59727394      11.31350684
Zn      12.85902429      37.71168947      16.97026026
Zn      12.85902429      39.59727394      15.08467579
Zn      12.85902429      37.71168947      20.74142921
Zn      12.85902429      39.59727394      18.85584474
Zn      12.85902429      37.71168947      24.51259815
Zn      12.85902429      39.59727394      22.62701368
Zn      12.85902429      37.71168947      28.28376710
Zn      12.85902429      39.59727394      26.39818263
Zn      12.85902429      37.71168947      32.05493605
Zn      12.85902429      39.59727394      30.16935158
Zn      12.85902429      37.71168947      35.82610499
Zn      12.85902429      39.59727394      33.94052052
Zn      12.85902429      41.48285842       1.88558447
Zn      12.85902429      43.36844289       0.00000000
Zn      12.85902429      41.48285842       5.65675342
Zn      12.85902429      43.36844289       3.77116895
Zn      12.85902429      41.48285842       9.42792236
Zn      12.85902429      43.36844289       7.54233789
Zn      12.85902429      41.48285842      13.19909131
Zn      12.85902429      43.36844289      11.31350684
Zn      12.85902429      41.48285842      16.97026026
Zn      12.85902429      43.36844289      15.08467579
Zn      12.85902429      41.48285842      20.74142921
Zn      12.85902429      43.36844289      18.85584474
Zn      12.85902429      41.48285842      24.51259815
Zn      12.85902429      43.36844289      22.62701368
Zn      12.85902429      41.48285842      28.28376710
Zn      12.85902429      43.36844289      26.39818263
Zn      12.85902429      41.48285842      32.05493605
Zn      12.85902429      43.36844289      30.16935158
Zn      12.85902429      41.48285842      35.82610499
Zn      12.85902429      43.36844289      33.94052052
Zn      12.85902429      45.25402737       1.88558447
Zn      12.85902429      47.13961184       0.00000000
Zn      12.85902429      45.25402737       5.65675342
Zn      12.85902429      47.13961184       3.77116895
Zn      12.85902429      45.25402737       9.42792236
Zn      12.85902429      47.13961184       7.54233789
Zn      12.85902429      45.25402737      13.19909131
Zn      12.85902429      47.13961184      11.31350684
Zn      12.85902429      45.25402737      16.97026026
Zn      12.85902429      47.13961184      15.08467579
Zn      12.85902429      45.25402737      20.74142921
Zn      12.85902429      47.13961184      18.85584474
Zn      12.85902429      45.25402737      24.51259815
Zn      12.85902429      47.13961184      22.62701368
Zn      12.85902429      45.25402737      28.28376710
Zn      12.85902429      47.13961184      26.39818263
Zn      12.85902429      45.25402737      32.05493605
Zn      12.85902429      47.13961184      30.16935158
Zn      12.85902429      45.25402737      35.82610499
Zn      12.85902429      47.13961184      33.94052052
Zn      12.85902429      49.02519631       1.88558447
Zn      12.85902429      50.91078078       0.00000000
Zn      12.85902429      49.02519631       5.65675342
Zn      12.85902429      50.91078078       3.77116895
Zn      12.85902429      49.02519631       9.42792236
Zn      12.85902429      50.91078078       7.54233789
Zn      12.85902429      49.02519631      13.19909131
Zn      12.85902429      50.91078078      11.31350684
Zn      12.85902429      49.02519631      16.97026026
Zn      12.85902429      50.91078078      15.08467579
Zn      12.85902429      49.02519631      20.74142921
Zn      12.85902429      50.91078078      18.85584474
Zn      12.85902429      49.02519631      24.51259815
Zn      12.85902429      50.91078078      22.62701368
Zn      12.85902429      49.02519631      28.28376710
Zn      12.85902429      50.91078078      26.39818263
Zn      12.85902429      49.02519631      32.05493605
Zn      12.85902429      50.91078078      30.16935158
Zn      12.85902429      49.02519631      35.82610499
Zn      12.85902429      50.91078078      33.94052052
Zn      12.85902429      52.79636526       1.88558447
Zn      12.85902429      54.68194973       0.00000000
Zn      12.85902429      52.79636526       5.65675342
Zn      12.85902429      54.68194973       3.77116895
Zn      12.85902429      52.79636526       9.42792236
Zn      12.85902429      54.68194973       7.54233789
Zn      12.85902429      52.79636526      13.19909131
Zn      12.85902429      54.68194973      11.31350684
Zn      12.85902429      52.79636526      16.97026026
Zn      12.85902429      54.68194973      15.08467579
Zn      12.85902429      52.79636526      20.74142921
Zn      12.85902429      54.68194973      18.85584474
Zn      12.85902429      52.79636526      24.51259815
Zn      12.85902429      54.68194973      22.62701368
Zn      12.85902429      52.79636526      28.28376710
Zn      12.85902429      54.68194973      26.39818263
Zn      12.85902429      52.79636526      32.05493605
Zn      12.85902429      54.68194973      30.16935158
Zn      12.85902429      52.79636526      35.82610499
Zn      12.85902429      54.68194973      33.94052052
Zn      12.85902429      56.56753421       1.88558447
Zn      12.85902429      58.45311868       0.00000000
Zn      12.85902429      56.56753421       5.65675342
Zn      12.85902429      58.45311868       3.77116895
Zn      12.85902429      56.56753421       9.42792236
Zn      12.85902429      58.45311868       7.54233789
Zn      12.85902429      56.56753421      13.19909131
Zn      12.85902429      58.45311868      11.31350684
Zn      12.85902429      56.56753421      16.97026026
Zn      12.85902429      58.45311868      15.08467579
Zn      12.85902429      56.56753421      20.74142921
Zn      12.85902429      58.45311868      18.85584474
Zn      12.85902429      56.56753421      24.51259815
Zn      12.85902429      58.45311868      22.62701368
Zn      12.85902429      56.56753421      28.28376710
Zn      12.85902429      58.45311868      26.39818263
Zn      12.85902429      56.56753421      32.05493605
Zn      12.85902429      58.45311868      30.16935158
Zn      12.85902429      56.56753421      35.82610499
Zn      12.85902429      58.45311868      33.94052052
Zn      16.53303123       0.00000000       1.88558447
Zn      16.53303123       1.88558447       0.00000000
Zn      16.53303123       0.00000000       5.65675342
Zn      16.53303123       1.88558447       3.77116895
Zn      16.53303123       0.00000000       9.42792236
Zn      16.53303123       1.88558447       7.54233789
Zn      16.53303123       0.00000000      13.19909131
Zn      16.53303123       1.88558447      11.31350684
Zn      16.53303123       0.00000000      16.97026026
Zn      16.53303123       1.88558447      15.08467579
Zn      16.53303123       0.00000000      20.74142921
Zn      16.53303123       1.88558447      18.85584474
Zn      16.53303123       0.00000000      24.51259815
Zn      16.53303123       1.88558447      22.62701368
Zn      16.53303123       0.00000000      28.28376710
Zn      16.53303123       1.88558447      26.39818263
Zn      16.53303123       0.00000000      32.05493605
Zn      16.53303123       1.88558447      30.16935158
Zn      16.53303123       0.00000000      35.82610499
Zn      16.53303123       1.88558447      33.94052052
Zn      16.53303123       3.77116895       1.88558447
Zn      16.53303123       5.65675342       0.00000000
Zn      16.53303123       3.77116895       5.65675342
Zn      16.53303123       5.65675342       3.77116895
Zn      16.53303123       3.77116895       9.42792236
Zn      16.53303123       5.65675342       7.54233789
Zn      16.53303123       3.77116895      13.19909131
Zn      16.53303123       5.65675342      11.31350684
Zn      16.53303123       3.77116895      16.97026026
Zn      16.53303123       5.65675342      15.08467579
Zn      16.53303123       3.77116895      20.74142921
Zn      16.53303123       5.65675342      18.85584474
Zn      16.53303123       3.77116895      24.51259815
Zn      16.53303123       5.65675342      22.62701368
Zn      16.53303123       3.77116895      28.28376710
Zn      16.53303123       5.65675342      26.39818263
Zn      16.53303123       3.77116895      32.05493605
Zn      16.53303123       5.65675342      30.16935158
Zn      16.53303123       3.77116895      35.82610499
Zn      16.53303123       5.65675342      33.94052052
Zn      16.53303123       7.54233789       1.88558447
Zn      16.53303123       9.42792236       0.00000000
Zn      16.53303123       7.54233789       5.65675342
Zn      16.53303123       9.42792236       3.77116895
Zn      16.53303123       7.54233789       9.42792236
Zn      16.53303123       9.42792236       7.54233789
Zn      16.53303123       7.54233789      13.19909131
Zn      16.53303123       9.42792236      11.31350684
Zn      16.53303123       7.54233789      16.97026026
Zn      16.53303123       9.42792236      15.08467579
Zn      16.53303123       7.54233789      20.74142921
Zn      16.53303123       9.42792236      18.85584474
Zn      16.53303123       7.54233789      24.51259815
Zn      16.53303123       9.42792236      22.62701368
Zn      16.53303123       7.54233789      28.28376710
Zn      16.53303123       9.42792236      26.39818263
Zn      16.53303123       7.54233789      32.05493605
Zn      16.53303123       9.42792236      30.16935158
Zn      16.53303123       7.54233789      35.82610499
Zn      16.53303123       9.42792236      33.94052052
Zn      16.53303123      11.31350684       1.88558447
Zn      16.53303123      13.19909131       0.00000000
Zn      16.53303123      11.31350684       5.65675342
Zn      16.53303123      13.19909131       3.77116895
Zn      16.53303123      11.31350684       9.42792236
Zn      16.53303123      13.19909131       7.54233789
Zn      16.53303123      11.31350684      13.19909131
Zn      16.53303123      13.19909131      11.31350684
Zn      16.53303123      11.31350684      16.97026026
Zn      16.53303123      13.19909131      15.08467579
Zn      16.53303123      11.31350684      20.74142921
Zn      16.53303123      13.19909131      18.85584474
Zn      16.53303123      11.31350684      24.51259815
Zn      16.53303123      13.19909131      22.62701368
Zn      16.53303123      11.31350684      28.28376710
Zn      16.53303123      13.19909131      26.39818263
Zn      16.53303123      11.31350684      32.05493605
Zn      16.53303123      13.19909131      30.16935158
Zn      16.53303123      11.31350684      35.82610499
Zn      16.53303123      13.19909131      33.94052052
Zn      16.53303123      15.08467579       1.88558447
Zn      16.53303123      16.97026026       0.00000000
Zn      16.53303123      15.08467579       5.65675342
Zn      16.53303123      16.97026026       3.77116895
Zn      16.53303123      15.08467579       9.42792236
Zn      16.53303123      16.97026026       7.54233789
Zn      16.53303123      15.08467579      13.19909131
Zn      16.53303123      16.97026026      11.31350684
Zn      16.53303123      15.08467579      16.97026026
Zn      16.53303123      16.97026026      15.08467579
Zn      16.53303123      15.08467579      20.74142921
Zn      16.53303123      16.97026026      18.85584474
Zn      16.53303123      15.08467579      24.51259815
Zn      16.53303123      16.97026026      22.62701368
Zn      16.53303123      15.08467579      28.28376710
Zn      16.53303123      16.97026026      26.39818263
Zn      16.53303123      15.08467579      32.05493605
Zn      16.53303123      16.97026026      30.16935158
Zn      16.53303123      15.08467579      35.82610499
Zn      16.53303123      16.97026026      33.94052052
Zn      16.53303123      18.85584474       1.88558447
Zn      16.53303123      20.74142921       0.00000000
Zn      16.53303123      18.85584474       5.65675342
Zn      16.53303123      20.74142921       3.77116895
Zn      16.53303123      18.85584474       9.42792236
Zn      16.53303123      20.74142921       7.54233789
Zn      16.53303123      18.85584474      13.19909131
Zn      16.53303123      20.74142921      11.31350684
Zn      16.53303123      18.85584474      16.97026026
Zn      16.53303123      20.74142921      15.08467579
Zn      16.53303123      18.85584474      20.74142921
Zn      16.53303123      20.74142921      18.85584474
Zn      16.53303123      18.85584474      24.51259815
Zn      16.53303123      20.74142921      22.62701368
Zn      16.53303123      18.85584474      28.28376710
Zn      16.53303123      20.74142921      26.39818263
Zn      16.53303123      18.85584474      32.05493605
Zn      16.53303123      20.74142921      30.16935158
Zn      16.53303123      18.85584474      35.82610499
Zn      16.53303123      20.74142921      33.94052052
Zn      16.53303123      22.62701368       1.88558447
Zn      16.53303123      24.51259815       0.00000000
Zn      16.53303123      22.62701368       5.65675342
Zn      16.53303123      24.51259815       3.77116895
Zn      16.53303123      22.62701368       9.42792236
Zn      16.53303123      24.51259815       7.54233789
Zn      16.53303123      22.62701368      13.19909131
Zn      16.53303123      24.51259815      11.31350684
Zn      16.53303123      22.62701368      16.97026026
Zn      16.53303123      24.51259815      15.08467579
Zn      16.53303123      22.62701368      20.74142921
Zn      16.53303123      24.51259815      18.85584474
Zn      16.53303123      22.62701368      24.51259815
Zn      16.53303123      24.51259815      22.62701368
Zn      16.53303123      22.62701368      28.28376710
Zn      16.53303123      24.51259815      26.39818263
Zn      16.53303123      22.62701368      32.05493605
Zn      16.53303123      24.51259815      30.16935158
Zn      16.53303123      22.62701368      35.82610499
Zn      16.53303123      24.51259815      33.94052052
Zn      16.53303123      26.39818263       1.88558447
Zn      16.53303123      28.28376710       0.00000000
Zn      16.53303123      26.39818263       5.65675342
Zn      16.53303123      28.28376710       3.77116895
Zn      16.53303123      26.39818263       9.42792236
Zn      16.53303123      28.28376710       7.54233789
Zn      16.53303123      26.39818263      13.19909131
Zn      16.53303123      28.28376710      11.31350684
Zn      16.53303123      26.39818263      16.97026026
Zn      16.53303123      28.28376710      15.08467579
Zn      16.53303123      26.39818263      20.74142921
Zn      16.53303123      28.28376710      18.85584474
Zn      16.53303123      26.39818263      24.51259815
Zn      16.53303123      28.28376710      22.62701368
Zn      16.53303123      26.39818263      28.28376710
Zn      16.53303123      28.28376710      26.39818263
Zn      16.53303123      26.39818263      32.05493605
Zn      16.53303123      28.28376710      30.16935158
Zn      16.53303123      26.39818263      35.82610499
Zn      16.53303123      28.28376710      33.94052052
Zn      16.53303123      30.16935158       1.88558447
Zn      16.53303123      32.05493605       0.00000000
Zn      16.53303123      30.16935158       5.65675342
Zn      16.53303123      32.05493605       3.77116895
Zn      16.53303123      30.16935158       9.42792236
Zn      16.53303123      32.05493605       7.54233789
Zn      16.53303123      30.16935158      13.19909131
Zn      16.53303123      32.05493605      11.31350684
Zn      16.53303123      30.16935158      16.97026026
Zn      16.53303123      32.05493605      15.08467579
Zn      16.53303123      30.16935158      20.74142921
Zn      16.53303123      32.05493605      18.85584474
Zn      16.53303123      30.16935158      24.51259815
Zn      16.53303123      32.05493605      22.62701368
Zn      16.53303123      30.16935158      28.28376710
Zn      16.53303123      32.05493605      26.39818263
Zn      16.53303123      30.16935158      32.05493605
Zn      16.53303123      32.05493605      30.16935158
Zn      16.53303123      30.16935158      35.82610499
Zn      16.53303123      32.05493605      33.94052052
Zn      16.53303123      33.94052052       1.88558447
Zn      16.53303123      35.82610499       0.00000000
Zn      16.53303123      33.94052052       5.65675342
Zn      16.53303123      35.82610499       3.77116895
Zn      16.53303123      33.94052052       9.42792236
Zn      16.53303123      35.82610499       7.54233789
Zn      16.53303123      33.94052052      13.19909131
Zn      16.53303123      35.82610499      11.31350684
Zn      16.53303123      33.94052052      16.97026026
Zn      16.53303123      35.82610499      15.08467579
Zn      16.53303123      33.94052052      20.74142921
Zn      16.53303123      35.82610499      18.85584474
Zn      16.53303123      33.94052052      24.51259815
Zn      16.53303123      35.82610499      22.62701368
Zn      16.53303123      33.94052052      28.28376710
Zn      16.53303123      35.82610499      26.39818263
Zn      16.53303123      33.94052052      32.05493605
Zn      16.53303123      35.82610499      30.16935158
Zn      16.53303123      33.94052052      35.82610499
Zn      16.53303123      35.82610499      33.94052052
Zn      16.53303123      37.71168947       1.88558447
Zn      16.53303123      39.59727394       0.00000000
Zn      16.53303123      37.71168947       5.65675342
Zn      16.53303123      39.59727394       3.77116895
Zn      16.53303123      37.71168947       9.42792236
Zn      16.53303123      39.59727394       7.54233789
Zn      16.53303123      37.71168947      13.19909131
Zn      16.53303123      39.59727394      11.31350684
Zn      16.53303123      37.71168947      16.97026026
Zn      16.53303123      39.59727394      15.08467579
Zn      16.53303123      37.71168947      20.74142921
Zn      16.53303123      39.59727394      18.85584474
Zn      16.53303123      37.71168947      24.51259815
Zn      16.53303123      39.59727394      22.62701368
Zn      16.53303123      37.71168947      28.28376710
Zn      16.53303123      39.59727394      26.39818263
Zn      16.53303123      37.71168947      32.05493605
Zn      16.53303123      39.59727394      30.16935158
Zn      16.53303123      37.71168947      35.82610499
Zn      16.53303123      39.59727394      33.94052052
Zn      16.53303123      41.48285842       1.88558447
Zn      16.53303123      43.36844289       0.00000000
Zn      16.53303123      41.48285842       5.65675342
Zn      16.53303123      43.36844289       3.77116895
Zn      16.53303123      41.48285842       9.42792236
Zn      16.53303123      43.36844289       7.54233789
Zn      16.53303123      41.48285842      13.19909131
Zn      16.53303123      43.36844289      11.31350684
Zn      16.53303123      41.48285842      16.97026026
Zn      16.53303123      43.36844289      15.08467579
Zn      16.53303123      41.48285842      20.74142921
Zn      16.53303123      43.36844289      18.85584474
Zn      16.53303123      41.48285842      24.51259815
Zn      16.53303123      43.36844289      22.62701368
Zn      16.53303123      41.48285842      28.28376710
Zn      16.53303123      43.36844289      26.39818263
Zn      16.53303123      41.48285842      32.05493605
Zn      16.53303123      43.36844289      30.16935158
Zn      16.53303123      41.48285842      35.82610499
Zn      16.53303123      43.36844289      33.94052052
Zn      16.53303123      45.25402737       1.88558447
Zn      16.53303123      47.13961184       0.00000000
Zn      16.53303123      45.25402737       5.65675342
Zn      16.53303123      47.13961184       3.77116895
Zn      16.53303123      45.25402737       9.42792236
Zn      16.53303123      47.13961184       7.54233789
Zn      16.53303123      45.25402737      13.19909131
Zn      16.53303123      47.13961184      11.31350684
Zn      16.53303123      45.25402737      16.97026026
Zn      16.53303123      47.13961184      15.08467579
Zn      16.53303123      45.25402737      20.74142921
Zn      16.53303123      47.13961184      18.85584474
Zn      16.53303123      45.25402737      24.51259815
Zn      16.53303123      47.13961184      22.62701368
Zn      16.53303123      45.25402737      28.28376710
Zn      16.53303123      47.13961184      26.39818263
Zn      16.53303123      45.25402737      32.05493605
Zn      16.53303123      47.13961184      30.16935158
Zn      16.53303123      45.25402737      35.82610499
Zn      16.53303123      47.13961184      33.94052052
Zn      16.53303123      49.02519631       1.88558447
Zn      16.53303123      50.91078078       0.00000000
Zn      16.53303123      49.02519631       5.65675342
Zn      16.53303123      50.91078078       3.77116895
Zn      16.53303123      49.02519631       9.42792236
Zn      16.53303123      50.91078078       7.54233789
Zn      16.53303123      49.02519631      13.19909131
Zn      16.53303123      50.91078078      11.31350684
Zn      16.53303123      49.02519631      16.97026026
Zn      16.53303123      50.91078078      15.08467579
Zn      16.53303123      49.02519631      20.74142921
Zn      16.53303123      50.91078078      18.85584474
Zn      16.53303123      49.02519631      24.51259815
Zn      16.53303123      50.91078078      22.62701368
Zn      16.53303123      49.02519631      28.28376710
Zn      16.53303123      50.91078078      26.39818263
Zn      16.53303123      49.02519631      32.05493605
Zn      16.53303123      50.91078078      30.16935158
Zn      16.53303123      49.02519631      35.82610499
Zn      16.53303123      50.91078078      33.94052052
Zn      16.53303123      52.79636526       1.88558447
Zn      16.53303123      54.68194973       0.00000000
Zn      16.53303123      52.79636526       5.65675342
Zn      16.53303123      54.68194973       3.77116895
Zn      16.53303123      52.79636526       9.42792236
Zn      16.53303123      54.68194973       7.54233789
Zn      16.53303123      52.79636526      13.19909131
Zn      16.53303123      54.68194973      11.31350684
Zn      16.53303123      52.79636526      16.97026026
Zn      16.53303123      54.68194973      15.08467579
Zn      16.53303123      52.79636526      20.74142921
Zn      16.53303123      54.68194973      18.85584474
Zn      16.53303123      52.79636526      24.51259815
Zn      16.53303123      54.68194973      22.62701368
Zn      16.53303123      52.79636526      28.28376710
Zn      16.53303123      54.68194973      26.39818263
Zn      16.53303123      52.79636526      32.05493605
Zn      16.53303123      54.68194973      30.16935158
Zn      16.53303123      52.79636526      35.82610499
Zn      16.53303123      54.68194973      33.94052052
Zn      16.53303123      56.56753421       1.88558447
Zn      16.53303123      58.45311868       0.00000000
Zn      16.53303123      56.56753421       5.65675342
Zn      16.53303123      58.45311868       3.77116895
Zn      16.53303123      56.56753421       9.42792236
Zn      16.53303123      58.45311868       7.54233789
Zn      16.53303123      56.56753421      13.19909131
Zn      16.53303123      58.45311868      11.31350684
Zn      16.53303123      56.56753421      16.97026026
Zn      16.53303123      58.45311868      15.08467579
Zn      16.53303123      56.56753421      20.74142921
Zn      16.53303123      58.45311868      18.85584474
Zn      16.53303123      56.56753421      24.51259815
Zn      16.53303123      58.45311868      22.62701368
Zn      16.53303123      56.56753421      28.28376710
Zn      16.53303123      58.45311868      26.39818263
Zn      16.53303123      56.56753421      32.05493605
Zn      16.53303123      58.45311868      30.16935158
Zn      16.53303123      56.56753421      35.82610499
Zn      16.53303123      58.45311868      33.94052052
Zn      20.20703816       0.00000000       1.88558447
Zn      20.20703816       1.88558447       0.00000000
Zn      20.20703816       0.00000000       5.65675342
Zn      20.20703816       1.88558447       3.77116895
Zn      20.20703816       0.00000000       9.42792236
Zn      20.20703816       1.88558447       7.54233789
Zn      20.20703816       0.00000000      13.19909131
Zn      20.20703816       1.88558447      11.31350684
Zn      20.20703816       0.00000000      16.97026026
Zn      20.20703816       1.88558447      15.08467579
Zn      20.20703816       0.00000000      20.74142921
Zn      20.20703816       1.88558447      18.85584474
Zn      20.20703816       0.00000000      24.51259815
Zn      20.20703816       1.88558447      22.62701368
Zn      20.20703816       0.00000000      28.28376710
Zn      20.20703816       1.88558447      26.39818263
Zn      20.20703816       0.00000000      32.05493605
Zn      20.20703816       1.88558447      30.16935158
Zn      20.20703816       0.00000000      35.82610499
Zn      20.20703816       1.88558447      33.94052052
Zn      20.20703816       3.77116895       1.88558447
Zn      20.20703816       5.65675342       0.00000000
Zn      20.20703816       3.77116895       5.65675342
Zn      20.20703816       5.65675342       3.77116895
Zn      20.20703816       3.77116895       9.42792236
Zn      20.20703816       5.65675342       7.54233789
Zn      20.20703816       3.77116895      13.19909131
Zn      20.20703816       5.65675342      11.31350684
Zn      20.20703816       3.77116895      16.97026026
Zn      20.20703816       5.65675342      15.08467579
Zn      20.20703816       3.77116895      20.74142921
Zn      20.20703816       5.65675342      18.85584474
Zn      20.20703816       3.77116895      24.51259815
Zn      20.20703816       5.65675342      22.62701368
Zn      20.20703816       3.77116895      28.28376710
Zn      20.20703816       5.65675342      26.39818263
Zn      20.20703816       3.77116895      32.05493605
Zn      20.20703816       5.65675342      30.16935158
Zn      20.20703816       3.77116895      35.82610499
Zn      20.20703816       5.65675342      33.94052052
Zn      20.20703816       7.54233789       1.88558447
Zn      20.20703816       9.42792236       0.00000000
Zn      20.20703816       7.54233789       5.65675342
Zn      20.20703816       9.42792236       3.77116895
Zn      20.20703816       7.54233789       9.42792236
Zn      20.20703816       9.42792236       7.54233789
Zn      20.20703816       7.54233789      13.19909131
Zn      20.20703816       9.42792236      11.31350684
Zn      20.20703816       7.54233789      16.97026026
Zn      20.20703816       9.42792236      15.08467579
Zn      20.20703816       7.54233789      20.74142921
Zn      20.20703816       9.42792236      18.85584474
Zn      20.20703816       7.54233789      24.51259815
Zn      20.20703816       9.42792236      22.62701368
Zn      20.20703816       7.54233789      28.28376710
Zn      20.20703816       9.42792236      26.39818263
Zn      20.20703816       7.54233789      32.05493605
Zn      20.20703816       9.42792236      30.16935158
Zn      20.20703816       7.54233789      35.82610499
Zn      20.20703816       9.42792236      33.94052052
Zn      20.20703816      11.31350684       1.88558447
Zn      20.20703816      13.19909131       0.00000000
Zn      20.20703816      11.31350684       5.65675342
Zn      20.20703816      13.19909131       3.77116895
Zn      20.20703816      11.31350684       9.42792236
Zn      20.20703816      13.19909131       7.54233789
Zn      20.20703816      11.31350684      13.19909131
Zn      20.20703816      13.19909131      11.31350684
Zn      20.20703816      11.31350684      16.97026026
Zn      20.20703816      13.19909131      15.08467579
Zn      20.20703816      11.31350684      20.74142921
Zn      20.20703816      13.19909131      18.85584474
Zn      20.20703816      11.31350684      24.51259815
Zn      20.20703816      13.19909131      22.62701368
Zn      20.20703816      11.31350684      28.28376710
Zn      20.20703816      13.19909131      26.39818263
Zn      20.20703816      11.31350684      32.05493605
Zn      20.20703816      13.19909131      30.16935158
Zn      20.20703816      11.31350684      35.82610499
Zn      20.20703816      13.19909131      33.94052052
Zn      20.20703816      15.08467579       1.88558447
Zn      20.20703816      16.97026026       0.00000000
Zn      20.20703816      15.08467579       5.65675342
Zn      20.20703816      16.97026026       3.77116895
Zn      20.20703816      15.08467579       9.42792236
Zn      20.20703816      16.97026026       7.54233789
Zn      20.20703816      15.08467579      13.19909131
Zn      20.20703816      16.97026026      11.31350684
Zn      20.20703816      15.08467579      16.97026026
Zn      20.20703816      16.97026026      15.08467579
Zn      20.20703816      15.08467579      20.74142921
Zn      20.20703816      16.97026026      18.85584474
Zn      20.20703816      15.08467579      24.51259815
Zn      20.20703816      16.97026026      22.62701368
Zn      20.20703816      15.08467579      28.28376710
Zn      20.20703816      16.97026026      26.39818263
Zn      20.20703816      15.08467579      32.05493605
Zn      20.20703816      16.97026026      30.16935158
Zn      20.20703816      15.08467579      35.82610499
Zn      20.20703816      16.97026026      33.94052052
Zn      20.20703816      18.85584474       1.88558447
Zn      20.20703816      20.74142921       0.00000000
Zn      20.20703816      18.85584474       5.65675342
Zn      20.20703816      20.74142921       3.77116895
Zn      20.20703816      18.85584474       9.42792236
Zn      20.20703816      20.74142921       7.54233789
Zn      20.20703816      18.85584474      13.19909131
Zn      20.20703816      20.74142921      11.31350684
Zn      20.20703816      18.85584474      16.97026026
Zn      20.20703816      20.74142921      15.08467579
Zn      20.20703816      18.85584474      20.74142921
Zn      20.20703816      20.74142921      18.85584474
Zn      20.20703816      18.85584474      24.51259815
Zn      20.20703816      20.74142921      22.62701368
Zn      20.20703816      18.85584474      28.28376710
Zn      20.20703816      20.74142921      26.39818263
Zn      20.20703816      18.85584474      32.05493605
Zn      20.20703816      20.74142921      30.16935158
Zn      20.20703816      18.85584474      35.82610499
Zn      20.20703816      20.74142921      33.94052052
Zn      20.20703816      22.62701368       1.88558447
Zn      20.20703816      24.51259815       0.00000000
Zn      20.20703816      22.62701368       5.65675342
Zn      20.20703816      24.51259815       3.77116895
Zn      20.20703816      22.62701368       9.42792236
Zn      20.20703816      24.51259815       7.54233789
Zn      20.20703816      22.62701368      13.19909131
Zn      20.20703816      24.51259815      11.31350684
Zn      20.20703816      22.62701368      16.97026026
Zn      20.20703816      24.51259815      15.08467579
Zn      20.20703816      22.62701368      20.74142921
Zn      20.20703816      24.51259815      18.85584474
Zn      20.20703816      22.62701368      24.51259815
Zn      20.20703816      24.51259815      22.62701368
Zn      20.20703816      22.62701368      28.28376710
Zn      20.20703816      24.51259815      26.39818263
Zn      20.20703816      22.62701368      32.05493605
Zn      20.20703816      24.51259815      30.16935158
Zn      20.20703816      22.62701368      35.82610499
Zn      20.20703816      24.51259815      33.94052052
Zn      20.20703816      26.39818263       1.88558447
Zn      20.20703816      28.28376710       0.00000000
Zn      20.20703816      26.39818263       5.65675342
Zn      20.20703816      28.28376710       3.77116895
Zn      20.20703816      26.39818263       9.42792236
Zn      20.20703816      28.28376710       7.54233789
Zn      20.20703816      26.39818263      13.19909131
Zn      20.20703816      28.28376710      11.31350684
Zn      20.20703816      26.39818263      16.97026026
Zn      20.20703816      28.28376710      15.08467579
Zn      20.20703816      26.39818263      20.74142921
Zn      20.20703816      28.28376710      18.85584474
Zn      20.20703816      26.39818263      24.51259815
Zn      20.20703816      28.28376710      22.62701368
Zn      20.20703816      26.39818263      28.28376710
Zn      20.20703816      28.28376710      26.39818263
Zn      20.20703816      26.39818263      32.05493605
Zn      20.20703816      28.28376710      30.16935158
Zn      20.20703816      26.39818263      35.82610499
Zn      20.20703816      28.28376710      33.94052052
Zn      20.20703816      30.16935158       1.88558447
Zn      20.20703816      32.05493605       0.00000000
Zn      20.20703816      30.16935158       5.65675342
Zn      20.20703816      32.05493605       3.77116895
Zn      20.20703816      30.16935158       9.42792236
Zn      20.20703816      32.05493605       7.54233789
Zn      20.20703816      30.16935158      13.19909131
Zn      20.20703816      32.05493605      11.31350684
Zn      20.20703816      30.16935158      16.97026026
Zn      20.20703816      32.05493605      15.08467579
Zn      20.20703816      30.16935158      20.74142921
Zn      20.20703816      32.05493605      18.85584474
Zn      20.20703816      30.16935158      24.51259815
Zn      20.20703816      32.05493605      22.62701368
Zn      20.20703816      30.16935158      28.28376710
Zn      20.20703816      32.05493605      26.39818263
Zn      20.20703816      30.16935158      32.05493605
Zn      20.20703816      32.05493605      30.16935158
Zn      20.20703816      30.16935158      35.82610499
Zn      20.20703816      32.05493605      33.94052052
Zn      20.20703816      33.94052052       1.88558447
Zn      20.20703816      35.82610499       0.00000000
Zn      20.20703816      33.94052052       5.65675342
Zn      20.20703816      35.82610499       3.77116895
Zn      20.20703816      33.94052052       9.42792236
Zn      20.20703816      35.82610499       7.54233789
Zn      20.20703816      33.94052052      13.19909131
Zn      20.20703816      35.82610499      11.31350684
Zn      20.20703816      33.94052052      16.97026026
Zn      20.20703816      35.82610499      15.08467579
Zn      20.20703816      33.94052052      20.74142921
Zn      20.20703816      35.82610499      18.85584474
Zn      20.20703816      33.94052052      24.51259815
Zn      20.20703816      35.82610499      22.62701368
Zn      20.20703816      33.94052052      28.28376710
Zn      20.20703816      35.82610499      26.39818263
Zn      20.20703816      33.94052052      32.05493605
Zn      20.20703816      35.82610499      30.16935158
Zn      20.20703816      33.94052052      35.82610499
Zn      20.20703816      35.82610499      33.94052052
Zn      20.20703816      37.71168947       1.88558447
Zn      20.20703816      39.59727394       0.00000000
Zn      20.20703816      37.71168947       5.65675342
Zn      20.20703816      39.59727394       3.77116895
Zn      20.20703816      37.71168947       9.42792236
Zn      20.20703816      39.59727394       7.54233789
Zn      20.20703816      37.71168947      13.19909131
Zn      20.20703816      39.59727394      11.31350684
Zn      20.20703816      37.71168947      16.97026026
Zn      20.20703816      39.59727394      15.08467579
Zn      20.20703816      37.71168947      20.74142921
Zn      20.20703816      39.59727394      18.85584474
Zn      20.20703816      37.71168947      24.51259815
Zn      20.20703816      39.59727394      22.62701368
Zn      20.20703816      37.71168947      28.28376710
Zn      20.20703816      39.59727394      26.39818263
Zn      20.20703816      37.71168947      32.05493605
Zn      20.20703816      39.59727394      30.16935158
Zn      20.20703816      37.71168947      35.82610499
Zn      20.20703816      39.59727394      33.94052052
Zn      20.20703816      41.48285842       1.88558447
Zn      20.20703816      43.36844289       0.00000000
Zn      20.20703816      41.48285842       5.65675342
Zn      20.20703816      43.36844289       3.77116895
Zn      20.20703816      41.48285842       9.42792236
Zn      20.20703816      43.36844289       7.54233789
Zn      20.20703816      41.48285842      13.19909131
Zn      20.20703816      43.36844289      11.31350684
Zn      20.20703816      41.48285842      16.97026026
Zn      20.20703816      43.36844289      15.08467579
Zn      20.20703816      41.48285842      20.74142921
Zn      20.20703816      43.36844289      18.85584474
Zn      20.20703816      41.48285842      24.51259815
Zn      20.20703816      43.36844289      22.62701368
Zn      20.20703816      41.48285842      28.28376710
Zn      20.20703816      43.36844289      26.39818263
Zn      20.20703816      41.48285842      32.05493605
Zn      20.20703816      43.36844289      30.16935158
Zn      20.20703816      41.48285842      35.82610499
Zn      20.20703816      43.36844289      33.94052052
Zn      20.20703816      45.25402737       1.88558447
Zn      20.20703816      47.13961184       0.00000000
Zn      20.20703816      45.25402737       5.65675342
Zn      20.20703816      47.13961184       3.77116895
Zn      20.20703816      45.25402737       9.42792236
Zn      20.20703816      47.13961184       7.54233789
Zn      20.20703816      45.25402737      13.19909131
Zn      20.20703816      47.13961184      11.31350684
Zn      20.20703816      45.25402737      16.97026026
Zn      20.20703816      47.13961184      15.08467579
Zn      20.20703816      45.25402737      20.74142921
Zn      20.20703816      47.13961184      18.85584474
Zn      20.20703816      45.25402737      24.51259815
Zn      20.20703816      47.13961184      22.62701368
Zn      20.20703816      45.25402737      28.28376710
Zn      20.20703816      47.13961184      26.39818263
Zn      20.20703816      45.25402737      32.05493605
Zn      20.20703816      47.13961184      30.16935158
Zn      20.20703816      45.25402737      35.82610499
Zn      20.20703816      47.13961184      33.94052052
Zn      20.20703816      49.02519631       1.88558447
Zn      20.20703816      50.91078078       0.00000000
Zn      20.20703816      49.02519631       5.65675342
Zn      20.20703816      50.91078078       3.77116895
Zn      20.20703816      49.02519631       9.42792236
Zn      20.20703816      50.91078078       7.54233789
Zn      20.20703816      49.02519631      13.19909131
Zn      20.20703816      50.91078078      11.31350684
Zn      20.20703816      49.02519631      16.97026026
Zn      20.20703816      50.91078078      15.08467579
Zn      20.20703816      49.02519631      20.74142921
Zn      20.20703816      50.91078078      18.85584474
Zn      20.20703816      49.02519631      24.51259815
Zn      20.20703816      50.91078078      22.62701368
Zn      20.20703816      49.02519631      28.28376710
Zn      20.20703816      50.91078078      26.39818263
Zn      20.20703816      49.02519631      32.05493605
Zn      20.20703816      50.91078078      30.16935158
Zn      20.20703816      49.02519631      35.82610499
Zn      20.20703816      50.91078078      33.94052052
Zn      20.20703816      52.79636526       1.88558447
Zn      20.20703816      54.68194973       0.00000000
Zn      20.20703816      52.79636526       5.65675342
Zn      20.20703816      54.68194973       3.77116895
Zn      20.20703816      52.79636526       9.42792236
Zn      20.20703816      54.68194973       7.54233789
Zn      20.20703816      52.79636526      13.19909131
Zn      20.20703816      54.68194973      11.31350684
Zn      20.20703816      52.79636526      16.97026026
Zn      20.20703816      54.68194973      15.08467579
Zn      20.20703816      52.79636526      20.74142921
Zn      20.20703816      54.68194973      18.85584474
Zn      20.20703816      52.79636526      24.51259815
Zn      20.20703816      54.68194973      22.62701368
Zn      20.20703816      52.79636526      28.28376710
Zn      20.20703816      54.68194973      26.39818263
Zn      20.20703816      52.79636526      32.05493605
Zn      20.20703816      54.68194973      30.16935158
Zn      20.20703816      52.79636526      35.82610499
Zn      20.20703816      54.68194973      33.94052052
Zn      20.20703816      56.56753421       1.88558447
Zn      20.20703816      58.45311868       0.00000000
Zn      20.20703816      56.56753421       5.65675342
Zn      20.20703816      58.45311868       3.77116895
Zn      20.20703816      56.56753421       9.42792236
Zn      20.20703816      58.45311868       7.54233789
Zn      20.20703816      56.56753421      13.19909131
Zn      20.20703816      58.45311868      11.31350684
Zn      20.20703816      56.56753421      16.97026026
Zn      20.20703816      58.45311868      15.08467579
Zn      20.20703816      56.56753421      20.74142921
Zn      20.20703816      58.45311868      18.85584474
Zn      20.20703816      56.56753421      24.51259815
Zn      20.20703816      58.45311868      22.62701368
Zn      20.20703816      56.56753421      28.28376710
Zn      20.20703816      58.45311868      26.39818263
Zn      20.20703816      56.56753421      32.05493605
Zn      20.20703816      58.45311868      30.16935158
Zn      20.20703816      56.56753421      35.82610499
Zn      20.20703816      58.45311868      33.94052052
Zn      23.88104510       0.00000000       1.88558447
Zn      23.88104510       1.88558447       0.00000000
Zn      23.88104510       0.00000000       5.65675342
Zn      23.88104510       1.88558447       3.77116895
Zn      23.88104510       0.00000000       9.42792236
Zn      23.88104510       1.88558447       7.54233789
Zn      23.88104510       0.00000000      13.19909131
Zn      23.88104510       1.88558447      11.31350684
Zn      23.88104510       0.00000000      16.97026026
Zn      23.88104510       1.88558447      15.08467579
Zn      23.88104510       0.00000000      20.74142921
Zn      23.88104510       1.88558447      18.85584474
Zn      23.88104510       0.00000000      24.51259815
Zn      23.88104510       1.88558447      22.62701368
Zn      23.88104510       0.00000000      28.28376710
Zn      23.88104510       1.88558447      26.39818263
Zn      23.88104510       0.00000000      32.05493605
Zn      23.88104510       1.88558447      30.16935158
Zn      23.88104510       0.00000000      35.82610499
Zn      23.88104510       1.88558447      33.94052052
Zn      23.88104510       3.77116895       1.88558447
Zn      23.88104510       5.65675342       0.00000000
Zn      23.88104510       3.77116895       5.65675342
Zn      23.88104510       5.65675342       3.77116895
Zn      23.88104510       3.77116895       9.42792236
Zn      23.88104510       5.65675342       7.54233789
Zn      23.88104510       3.77116895      13.19909131
Zn      23.88104510       5.65675342      11.31350684
Zn      23.88104510       3.77116895      16.97026026
Zn      23.88104510       5.65675342      15.08467579
Zn      23.88104510       3.77116895      20.74142921
Zn      23.88104510       5.65675342      18.85584474
Zn      23.88104510       3.77116895      24.51259815
Zn      23.88104510       5.65675342      22.62701368
Zn      23.88104510       3.77116895      28.28376710
Zn      23.88104510       5.65675342      26.39818263
Zn      23.88104510       3.77116895      32.05493605
Zn      23.88104510       5.65675342      30.16935158
Zn      23.88104510       3.77116895      35.82610499
Zn      23.88104510       5.65675342      33.94052052
Zn      23.88104510       7.54233789       1.88558447
Zn      23.88104510       9.42792236       0.00000000
Zn      23.88104510       7.54233789       5.65675342
Zn      23.88104510       9.42792236       3.77116895
Zn      23.88104510       7.54233789       9.42792236
Zn      23.88104510       9.42792236       7.54233789
Zn      23.88104510       7.54233789      13.19909131
Zn      23.88104510       9.42792236      11.31350684
Zn      23.88104510       7.54233789      16.97026026
Zn      23.88104510       9.42792236      15.08467579
Zn      23.88104510       7.54233789      20.74142921
Zn      23.88104510       9.42792236      18.85584474
Zn      23.88104510       7.54233789      24.51259815
Zn      23.88104510       9.42792236      22.62701368
Zn      23.88104510       7.54233789      28.28376710
Zn      23.88104510       9.42792236      26.39818263
Zn      23.88104510       7.54233789      32.05493605
Zn      23.88104510       9.42792236      30.16935158
Zn      23.88104510       7.54233789      35.82610499
Zn      23.88104510       9.42792236      33.94052052
Zn      23.88104510      11.31350684       1.88558447
Zn      23.88104510      13.19909131       0.00000000
Zn      23.88104510      11.31350684       5.65675342
Zn      23.88104510      13.19909131       3.77116895
Zn      23.88104510      11.31350684       9.42792236
Zn      23.88104510      13.19909131       7.54233789
Zn      23.88104510      11.31350684      13.19909131
Zn      23.88104510      13.19909131      11.31350684
Zn      23.88104510      11.31350684      16.97026026
Zn      23.88104510      13.19909131      15.08467579
Zn      23.88104510      11.31350684      20.74142921
Zn      23.88104510      13.19909131      18.85584474
Zn      23.88104510      11.31350684      24.51259815
Zn      23.88104510      13.19909131      22.62701368
Zn      23.88104510      11.31350684      28.28376710
Zn      23.88104510      13.19909131      26.39818263
Zn      23.88104510      11.31350684      32.05493605
Zn      23.88104510      13.19909131      30.16935158
Zn      23.88104510      11.31350684      35.82610499
Zn      23.88104510      13.19909131      33.94052052
Zn      23.88104510      15.08467579       1.88558447
Zn      23.88104510      16.97026026       0.00000000
Zn      23.88104510      15.08467579       5.65675342
Zn      23.88104510      16.97026026       3.77116895
Zn      23.88104510      15.08467579       9.42792236
Zn      23.88104510      16.97026026       7.54233789
Zn      23.88104510      15.08467579      13.19909131
Zn      23.88104510      16.97026026      11.31350684
Zn      23.88104510      15.08467579      16.97026026
Zn      23.88104510      16.97026026      15.08467579
Zn      23.88104510      15.08467579      20.74142921
Zn      23.88104510      16.97026026      18.85584474
Zn      23.88104510      15.08467579      24.51259815
Zn      23.88104510      16.97026026      22.62701368
Zn      23.88104510      15.08467579      28.28376710
Zn      23.88104510      16.97026026      26.39818263
Zn      23.88104510      15.08467579      32.05493605
Zn      23.88104510      16.97026026      30.16935158
Zn      23.88104510      15.08467579      35.82610499
Zn      23.88104510      16.97026026      33.94052052
Zn      23.88104510      18.85584474       1.88558447
Zn      23.88104510      20.74142921       0.00000000
Zn      23.88104510      18.85584474       5.65675342
Zn      23.88104510      20.74142921       3.77116895
Zn      23.88104510      18.85584474       9.42792236
Zn      23.88104510      20.74142921       7.54233789
Zn      23.88104510      18.85584474      13.19909131
Zn      23.88104510      20.74142921      11.31350684
Zn      23.88104510      18.85584474      16.97026026
Zn      23.88104510      20.74142921      15.08467579
Zn      23.88104510      18.85584474      20.74142921
Zn      23.88104510      20.74142921      18.85584474
Zn      23.88104510      18.85584474      24.51259815
Zn      23.88104510      20.74142921      22.62701368
Zn      23.88104510      18.85584474      28.28376710
Zn      23.88104510      20.74142921      26.39818263
Zn      23.88104510      18.85584474      32.05493605
Zn      23.88104510      20.74142921      30.16935158
Zn      23.88104510      18.85584474      35.82610499
Zn      23.88104510      20.74142921      33.94052052
Zn      23.88104510      22.62701368       1.88558447
Zn      23.88104510      24.51259815       0.00000000
Zn      23.88104510      22.62701368       5.65675342
Zn      23.88104510      24.51259815       3.77116895
Zn      23.88104510      22.62701368       9.42792236
Zn      23.88104510      24.51259815       7.54233789
Zn      23.88104510      22.62701368      13.19909131
Zn      23.88104510      24.51259815      11.31350684
Zn      23.88104510      22.62701368      16.97026026
Zn      23.88104510      24.51259815      15.08467579
Zn      23.88104510      22.62701368      20.74142921
Zn      23.88104510      24.51259815      18.85584474
Zn      23.88104510      22.62701368      24.51259815
Zn      23.88104510      24.51259815      22.62701368
Zn      23.88104510      22.62701368      28.28376710
Zn      23.88104510      24.51259815      26.39818263
Zn      23.88104510      22.62701368      32.05493605
Zn      23.88104510      24.51259815      30.16935158
Zn      23.88104510      22.62701368      35.82610499
Zn      23.88104510      24.51259815      33.94052052
Zn      23.88104510      26.39818263       1.88558447
Zn      23.88104510      28.28376710       0.00000000
Zn      23.88104510      26.39818263       5.65675342
Zn      23.88104510      28.28376710       3.77116895
Zn      23.88104510      26.39818263       9.42792236
Zn      23.88104510      28.28376710       7.54233789
Zn      23.88104510      26.39818263      13.19909131
Zn      23.88104510      28.28376710      11.31350684
Zn      23.88104510      26.39818263      16.97026026
Zn      23.88104510      28.28376710      15.08467579
Zn      23.88104510      26.39818263      20.74142921
Zn      23.88104510      28.28376710      18.85584474
Zn      23.88104510      26.39818263      24.51259815
Zn      23.88104510      28.28376710      22.62701368
Zn      23.88104510      26.39818263      28.28376710
Zn      23.88104510      28.28376710      26.39818263
Zn      23.88104510      26.39818263      32.05493605
Zn      23.88104510      28.28376710      30.16935158
Zn      23.88104510      26.39818263      35.82610499
Zn      23.88104510      28.28376710      33.94052052
Zn      23.88104510      30.16935158       1.88558447
Zn      23.88104510      32.05493605       0.00000000
Zn      23.88104510      30.16935158       5.65675342
Zn      23.88104510      32.05493605       3.77116895
Zn      23.88104510      30.16935158       9.42792236
Zn      23.88104510      32.05493605       7.54233789
Zn      23.88104510      30.16935158      13.19909131
Zn      23.88104510      32.05493605      11.31350684
Zn      23.88104510      30.16935158      16.97026026
Zn      23.88104510      32.05493605      15.08467579
Zn      23.88104510      30.16935158      20.74142921
Zn      23.88104510      32.05493605      18.85584474
Zn      23.88104510      30.16935158      24.51259815
Zn      23.88104510      32.05493605      22.62701368
Zn      23.88104510      30.16935158      28.28376710
Zn      23.88104510      32.05493605      26.39818263
Zn      23.88104510      30.16935158      32.05493605
Zn      23.88104510      32.05493605      30.16935158
Zn      23.88104510      30.16935158      35.82610499
Zn      23.88104510      32.05493605      33.94052052
Zn      23.88104510      33.94052052       1.88558447
Zn      23.88104510      35.82610499       0.00000000
Zn      23.88104510      33.94052052       5.65675342
Zn      23.88104510      35.82610499       3.77116895
Zn      23.88104510      33.94052052       9.42792236
Zn      23.88104510      35.82610499       7.54233789
Zn      23.88104510      33.94052052      13.19909131
Zn      23.88104510      35.82610499      11.31350684
Zn      23.88104510      33.94052052      16.97026026
Zn      23.88104510      35.82610499      15.08467579
Zn      23.88104510      33.94052052      20.74142921
Zn      23.88104510      35.82610499      18.85584474
Zn      23.88104510      33.94052052      24.51259815
Zn      23.88104510      35.82610499      22.62701368
Zn      23.88104510      33.94052052      28.28376710
Zn      23.88104510      35.82610499      26.39818263
Zn      23.88104510      33.94052052      32.05493605
Zn      23.88104510      35.82610499      30.16935158
Zn      23.88104510      33.94052052      35.82610499
Zn      23.88104510      35.82610499      33.94052052
Zn      23.88104510      37.71168947       1.88558447
Zn      23.88104510      39.59727394       0.00000000
Zn      23.88104510      37.71168947       5.65675342
Zn      23.88104510      39.59727394       3.77116895
Zn      23.88104510      37.71168947       9.42792236
Zn      23.88104510      39.59727394       7.54233789
Zn      23.88104510      37.71168947      13.19909131
Zn      23.88104510      39.59727394      11.31350684
Zn      23.88104510      37.71168947      16.97026026
Zn      23.88104510      39.59727394      15.08467579
Zn      23.88104510      37.71168947      20.74142921
Zn      23.88104510      39.59727394      18.85584474
Zn      23.88104510      37.71168947      24.51259815
Zn      23.88104510      39.59727394      22.62701368
Zn      23.88104510      37.71168947      28.28376710
Zn      23.88104510      39.59727394      26.39818263
Zn      23.88104510      37.71168947      32.05493605
Zn      23.88104510      39.59727394      30.16935158
Zn      23.88104510      37.71168947      35.82610499
Zn      23.88104510      39.59727394      33.94052052
Zn      23.88104510      41.48285842       1.88558447
Zn      23.88104510      43.36844289       0.00000000
Zn      23.88104510      41.48285842       5.65675342
Zn      23.88104510      43.36844289       3.77116895
Zn      23.88104510      41.48285842       9.42792236
Zn      23.88104510      43.36844289       7.54233789
Zn      23.88104510      41.48285842      13.19909131
Zn      23.88104510      43.36844289      11.31350684
Zn      23.88104510      41.48285842      16.97026026
Zn      23.88104510      43.36844289      15.08467579
Zn      23.88104510      41.48285842      20.74142921
Zn      23.88104510      43.36844289      18.85584474
Zn      23.88104510      41.48285842      24.51259815
Zn      23.88104510      43.36844289      22.62701368
Zn      23.88104510      41.48285842      28.28376710
Zn      23.88104510      43.36844289      26.39818263
Zn      23.88104510      41.48285842      32.05493605
Zn      23.88104510      43.36844289      30.16935158
Zn      23.88104510      41.48285842      35.82610499
Zn      23.88104510      43.36844289      33.94052052
Zn      23.88104510      45.25402737       1.88558447
Zn      23.88104510      47.13961184       0.00000000
Zn      23.88104510      45.25402737       5.65675342
Zn      23.88104510      47.13961184       3.77116895
Zn      23.88104510      45.25402737       9.42792236
Zn      23.88104510      47.13961184       7.54233789
Zn      23.88104510      45.25402737      13.19909131
Zn      23.88104510      47.13961184      11.31350684
Zn      23.88104510      45.25402737      16.97026026
Zn      23.88104510      47.13961184      15.08467579
Zn      23.88104510      45.25402737      20.74142921
Zn      23.88104510      47.13961184      18.85584474
Zn      23.88104510      45.25402737      24.51259815
Zn      23.88104510      47.13961184      22.62701368
Zn      23.88104510      45.25402737      28.28376710
Zn      23.88104510      47.13961184      26.39818263
Zn      23.88104510      45.25402737      32.05493605
Zn      23.88104510      47.13961184      30.16935158
Zn      23.88104510      45.25402737      35.82610499
Zn      23.88104510      47.13961184      33.94052052
Zn      23.88104510      49.02519631       1.88558447
Zn      23.88104510      50.91078078       0.00000000
Zn      23.88104510      49.02519631       5.65675342
Zn      23.88104510      50.91078078       3.77116895
Zn      23.88104510      49.02519631       9.42792236
Zn      23.88104510      50.91078078       7.54233789
Zn      23.88104510      49.02519631      13.19909131
Zn      23.88104510      50.91078078      11.31350684
Zn      23.88104510      49.02519631      16.97026026
Zn      23.88104510      50.91078078      15.08467579
Zn      23.88104510      49.02519631      20.74142921
Zn      23.88104510      50.91078078      18.85584474
Zn      23.88104510      49.02519631      24.51259815
Zn      23.88104510      50.91078078      22.62701368
Zn      23.88104510      49.02519631      28.28376710
Zn      23.88104510      50.91078078      26.39818263
Zn      23.88104510      49.02519631      32.05493605
Zn      23.88104510      50.91078078      30.16935158
Zn      23.88104510      49.02519631      35.82610499
Zn      23.88104510      50.91078078      33.94052052
Zn      23.88104510      52.79636526       1.88558447
Zn      23.88104510      54.68194973       0.00000000
Zn      23.88104510      52.79636526       5.65675342
Zn      23.88104510      54.68194973       3.77116895
Zn      23.88104510      52.79636526       9.42792236
Zn      23.88104510      54.68194973       7.54233789
Zn      23.88104510      52.79636526      13.19909131
Zn      23.88104510      54.68194973      11.31350684
Zn      23.88104510      52.79636526      16.97026026
Zn      23.88104510      54.68194973      15.08467579
Zn      23.88104510      52.79636526      20.74142921
Zn      23.88104510      54.68194973      18.85584474
Zn      23.88104510      52.79636526      24.51259815
Zn      23.88104510      54.68194973      22.62701368
Zn      23.88104510      52.79636526      28.28376710
Zn      23.88104510      54.68194973      26.39818263
Zn      23.88104510      52.79636526      32.05493605
Zn      23.88104510      54.68194973      30.16935158
Zn      23.88104510      52.79636526      35.82610499
Zn      23.88104510      54.68194973      33.94052052
Zn      23.88104510      56.56753421       1.88558447
Zn      23.88104510      58.45311868       0.00000000
Zn      23.88104510      56.56753421       5.65675342
Zn      23.88104510      58.45311868       3.77116895
Zn      23.88104510      56.56753421       9.42792236
Zn      23.88104510      58.45311868       7.54233789
Zn      23.88104510      56.56753421      13.19909131
Zn      23.88104510      58.45311868      11.31350684
Zn      23.88104510      56.56753421      16.97026026
Zn      23.88104510      58.45311868      15.08467579
Zn      23.88104510      56.56753421      20.74142921
Zn      23.88104510      58.45311868      18.85584474
Zn      23.88104510      56.56753421      24.51259815
Zn      23.88104510      58.45311868      22.62701368
Zn      23.88104510      56.56753421      28.28376710
Zn      23.88104510      58.45311868      26.39818263
Zn      23.88104510      56.56753421      32.05493605
Zn      23.88104510      58.45311868      30.16935158
Zn      23.88104510      56.56753421      35.82610499
Zn      23.88104510      58.45311868      33.94052052
Zn      27.55505204       0.00000000       1.88558447
Zn      27.55505204       1.88558447       0.00000000
Zn      27.55505204       0.00000000       5.65675342
Zn      27.55505204       1.88558447       3.77116895
Zn      27.55505204       0.00000000       9.42792236
Zn      27.55505204       1.88558447       7.54233789
Zn      27.55505204       0.00000000      13.19909131
Zn      27.55505204       1.88558447      11.31350684
Zn      27.55505204       0.00000000      16.97026026
Zn      27.55505204       1.88558447      15.08467579
Zn      27.55505204       0.00000000      20.74142921
Zn      27.55505204       1.88558447      18.85584474
Zn      27.55505204       0.00000000      24.51259815
Zn      27.55505204       1.88558447      22.62701368
Zn      27.55505204       0.00000000      28.28376710
Zn      27.55505204       1.88558447      26.39818263
Zn      27.55505204       0.00000000      32.05493605
Zn      27.55505204       1.88558447      30.16935158
Zn      27.55505204       0.00000000      35.82610499
Zn      27.55505204       1.88558447      33.94052052
Zn      27.55505204       3.77116895       1.88558447
Zn      27.55505204       5.65675342       0.00000000
Zn      27.55505204       3.77116895       5.65675342
Zn      27.55505204       5.65675342       3.77116895
Zn      27.55505204       3.77116895       9.42792236
Zn      27.55505204       5.65675342       7.54233789
Zn      27.55505204       3.77116895      13.19909131
Zn      27.55505204       5.65675342      11.31350684
Zn      27.55505204       3.77116895      16.97026026
Zn      27.55505204       5.65675342      15.08467579
Zn      27.55505204       3.77116895      20.74142921
Zn      27.55505204       5.65675342      18.85584474
Zn      27.55505204       3.77116895      24.51259815
Zn      27.55505204       5.65675342      22.62701368
Zn      27.55505204       3.77116895      28.28376710
Zn      27.55505204       5.65675342      26.39818263
Zn      27.55505204       3.77116895      32.05493605
Zn      27.55505204       5.65675342      30.16935158
Zn      27.55505204       3.77116895      35.82610499
Zn      27.55505204       5.65675342      33.94052052
Zn      27.55505204       7.54233789       1.88558447
Zn      27.55505204       9.42792236       0.00000000
Zn      27.55505204       7.54233789       5.65675342
Zn      27.55505204       9.42792236       3.77116895
Zn      27.55505204       7.54233789       9.42792236
Zn      27.55505204       9.42792236       7.54233789
Zn      27.55505204       7.54233789      13.19909131
Zn      27.55505204       9.42792236      11.31350684
Zn      27.55505204       7.54233789      16.97026026
Zn      27.55505204       9.42792236      15.08467579
Zn      27.55505204       7.54233789      20.74142921
Zn      27.55505204       9.42792236      18.85584474
Zn      27.55505204       7.54233789      24.51259815
Zn      27.55505204       9.42792236      22.62701368
Zn      27.55505204       7.54233789      28.28376710
Zn      27.55505204       9.42792236      26.39818263
Zn      27.55505204       7.54233789      32.05493605
Zn      27.55505204       9.42792236      30.16935158
Zn      27.55505204       7.54233789      35.82610499
Zn      27.55505204       9.42792236      33.94052052
Zn      27.55505204      11.31350684       1.88558447
Zn      27.55505204      13.19909131       0.00000000
Zn      27.55505204      11.31350684       5.65675342
Zn      27.55505204      13.19909131       3.77116895
Zn      27.55505204      11.31350684       9.42792236
Zn      27.55505204      13.19909131       7.54233789
Zn      27.55505204      11.31350684      13.19909131
Zn      27.55505204      13.19909131      11.31350684
Zn      27.55505204      11.31350684      16.97026026
Zn      27.55505204      13.19909131      15.08467579
Zn      27.55505204      11.31350684      20.74142921
Zn      27.55505204      13.19909131      18.85584474
Zn      27.55505204      11.31350684      24.51259815
Zn      27.55505204      13.19909131      22.62701368
Zn      27.55505204      11.31350684      28.28376710
Zn      27.55505204      13.19909131      26.39818263
Zn      27.55505204      11.31350684      32.05493605
Zn      27.55505204      13.19909131      30.16935158
Zn      27.55505204      11.31350684      35.82610499
Zn      27.55505204      13.19909131      33.94052052
Zn      27.55505204      15.08467579       1.88558447
Zn      27.55505204      16.97026026       0.00000000
Zn      27.55505204      15.08467579       5.65675342
Zn      27.55505204      16.97026026       3.77116895
Zn      27.55505204      15.08467579       9.42792236
Zn      27.55505204      16.97026026       7.54233789
Zn      27.55505204      15.08467579      13.19909131
Zn      27.55505204      16.97026026      11.31350684
Zn      27.55505204      15.08467579      16.97026026
Zn      27.55505204      16.97026026      15.08467579
Zn      27.55505204      15.08467579      20.74142921
Zn      27.55505204      16.97026026      18.85584474
Zn      27.55505204      15.08467579      24.51259815
Zn      27.55505204      16.97026026      22.62701368
Zn      27.55505204      15.08467579      28.28376710
Zn      27.55505204      16.97026026      26.39818263
Zn      27.55505204      15.08467579      32.05493605
Zn      27.55505204      16.97026026      30.16935158
Zn      27.55505204      15.08467579      35.82610499
Zn      27.55505204      16.97026026      33.94052052
Zn      27.55505204      18.85584474       1.88558447
Zn      27.55505204      20.74142921       0.00000000
Zn      27.55505204      18.85584474       5.65675342
Zn      27.55505204      20.74142921       3.77116895
Zn      27.55505204      18.85584474       9.42792236
Zn      27.55505204      20.74142921       7.54233789
Zn      27.55505204      18.85584474      13.19909131
Zn      27.55505204      20.74142921      11.31350684
Zn      27.55505204      18.85584474      16.97026026
Zn      27.55505204      20.74142921      15.08467579
Zn      27.55505204      18.85584474      20.74142921
Zn      27.55505204      20.74142921      18.85584474
Zn      27.55505204      18.85584474      24.51259815
Zn      27.55505204      20.74142921      22.62701368
Zn      27.55505204      18.85584474      28.28376710
Zn      27.55505204      20.74142921      26.39818263
Zn      27.55505204      18.85584474      32.05493605
Zn      27.55505204      20.74142921      30.16935158
Zn      27.55505204      18.85584474      35.82610499
Zn      27.55505204      20.74142921      33.94052052
Zn      27.55505204      22.62701368       1.88558447
Zn      27.55505204      24.51259815       0.00000000
Zn      27.55505204      22.62701368       5.65675342
Zn      27.55505204      24.51259815       3.77116895
Zn      27.55505204      22.62701368       9.42792236
Zn      27.55505204      24.51259815       7.54233789
Zn      27.55505204      22.62701368      13.19909131
Zn      27.55505204      24.51259815      11.31350684
Zn      27.55505204      22.62701368      16.97026026
Zn      27.55505204      24.51259815      15.08467579
Zn      27.55505204      22.62701368      20.74142921
Zn      27.55505204      24.51259815      18.85584474
Zn      27.55505204      22.62701368      24.51259815
Zn      27.55505204      24.51259815      22.62701368
Zn      27.55505204      22.62701368      28.28376710
Zn      27.55505204      24.51259815      26.39818263
Zn      27.55505204      22.62701368      32.05493605
Zn      27.55505204      24.51259815      30.16935158
Zn      27.55505204      22.62701368      35.82610499
Zn      27.55505204      24.51259815      33.94052052
Zn      27.55505204      26.39818263       1.88558447
Zn      27.55505204      28.28376710       0.00000000
Zn      27.55505204      26.39818263       5.65675342
Zn      27.55505204      28.28376710       3.77116895
Zn      27.55505204      26.39818263       9.42792236
Zn      27.55505204      28.28376710       7.54233789
Zn      27.55505204      26.39818263      13.19909131
Zn      27.55505204      28.28376710      11.31350684
Zn      27.55505204      26.39818263      16.97026026
Zn      27.55505204      28.28376710      15.08467579
Zn      27.55505204      26.39818263      20.74142921
Zn      27.55505204      28.28376710      18.85584474
Zn      27.55505204      26.39818263      24.51259815
Zn      27.55505204      28.28376710      22.62701368
Zn      27.55505204      26.39818263      28.28376710
Zn      27.55505204      28.28376710      26.39818263
Zn      27.55505204      26.39818263      32.05493605
Zn      27.55505204      28.28376710      30.16935158
Zn      27.55505204      26.39818263      35.82610499
Zn      27.55505204      28.28376710      33.94052052
Zn      27.55505204      30.16935158       1.88558447
Zn      27.55505204      32.05493605       0.00000000
Zn      27.55505204      30.16935158       5.65675342
Zn      27.55505204      32.05493605       3.77116895
Zn      27.55505204      30.16935158       9.42792236
Zn      27.55505204      32.05493605       7.54233789
Zn      27.55505204      30.16935158      13.19909131
Zn      27.55505204      32.05493605      11.31350684
Zn      27.55505204      30.16935158      16.97026026
Zn      27.55505204      32.05493605      15.08467579
Zn      27.55505204      30.16935158      20.74142921
Zn      27.55505204      32.05493605      18.85584474
Zn      27.55505204      30.16935158      24.51259815
Zn      27.55505204      32.05493605      22.62701368
Zn      27.55505204      30.16935158      28.28376710
Zn      27.55505204      32.05493605      26.39818263
Zn      27.55505204      30.16935158      32.05493605
Zn      27.55505204      32.05493605      30.16935158
Zn      27.55505204      30.16935158      35.82610499
Zn      27.55505204      32.05493605      33.94052052
Zn      27.55505204      33.94052052       1.88558447
Zn      27.55505204      35.82610499       0.00000000
Zn      27.55505204      33.94052052       5.65675342
Zn      27.55505204      35.82610499       3.77116895
Zn      27.55505204      33.94052052       9.42792236
Zn      27.55505204      35.82610499       7.54233789
Zn      27.55505204      33.94052052      13.19909131
Zn      27.55505204      35.82610499      11.31350684
Zn      27.55505204      33.94052052      16.97026026
Zn      27.55505204      35.82610499      15.08467579
Zn      27.55505204      33.94052052      20.74142921
Zn      27.55505204      35.82610499      18.85584474
Zn      27.55505204      33.94052052      24.51259815
Zn      27.55505204      35.82610499      22.62701368
Zn      27.55505204      33.94052052      28.28376710
Zn      27.55505204      35.82610499      26.39818263
Zn      27.55505204      33.94052052      32.05493605
Zn      27.55505204      35.82610499      30.16935158
Zn      27.55505204      33.94052052      35.82610499
Zn      27.55505204      35.82610499      33.94052052
Zn      27.55505204      37.71168947       1.88558447
Zn      27.55505204      39.59727394       0.00000000
Zn      27.55505204      37.71168947       5.65675342
Zn      27.55505204      39.59727394       3.77116895
Zn      27.55505204      37.71168947       9.42792236
Zn      27.55505204      39.59727394       7.54233789
Zn      27.55505204      37.71168947      13.19909131
Zn      27.55505204      39.59727394      11.31350684
Zn      27.55505204      37.71168947      16.97026026
Zn      27.55505204      39.59727394      15.08467579
Zn      27.55505204      37.71168947      20.74142921
Zn      27.55505204      39.59727394      18.85584474
Zn      27.55505204      37.71168947      24.51259815
Zn      27.55505204      39.59727394      22.62701368
Zn      27.55505204      37.71168947      28.28376710
Zn      27.55505204      39.59727394      26.39818263
Zn      27.55505204      37.71168947      32.05493605
Zn      27.55505204      39.59727394      30.16935158
Zn      27.55505204      37.71168947      35.82610499
Zn      27.55505204      39.59727394      33.94052052
Zn      27.55505204      41.48285842       1.88558447
Zn      27.55505204      43.36844289       0.00000000
Zn      27.55505204      41.48285842       5.65675342
Zn      27.55505204      43.36844289       3.77116895
Zn      27.55505204      41.48285842       9.42792236
Zn      27.55505204      43.36844289       7.54233789
Zn      27.55505204      41.48285842      13.19909131
Zn      27.55505204      43.36844289      11.31350684
Zn      27.55505204      41.48285842      16.97026026
Zn      27.55505204      43.36844289      15.08467579
Zn      27.55505204      41.48285842      20.74142921
Zn      27.55505204      43.36844289      18.85584474
Zn      27.55505204      41.48285842      24.51259815
Zn      27.55505204      43.36844289      22.62701368
Zn      27.55505204      41.48285842      28.28376710
Zn      27.55505204      43.36844289      26.39818263
Zn      27.55505204      41.48285842      32.05493605
Zn      27.55505204      43.36844289      30.16935158
Zn      27.55505204      41.48285842      35.82610499
Zn      27.55505204      43.36844289      33.94052052
Zn      27.55505204      45.25402737       1.88558447
Zn      27.55505204      47.13961184       0.00000000
Zn      27.55505204      45.25402737       5.65675342
Zn      27.55505204      47.13961184       3.77116895
Zn      27.55505204      45.25402737       9.42792236
Zn      27.55505204      47.13961184       7.54233789
Zn      27.55505204      45.25402737      13.19909131
Zn      27.55505204      47.13961184      11.31350684
Zn      27.55505204      45.25402737      16.97026026
Zn      27.55505204      47.13961184      15.08467579
Zn      27.55505204      45.25402737      20.74142921
Zn      27.55505204      47.13961184      18.85584474
Zn      27.55505204      45.25402737      24.51259815
Zn      27.55505204      47.13961184      22.62701368
Zn      27.55505204      45.25402737      28.28376710
Zn      27.55505204      47.13961184      26.39818263
Zn      27.55505204      45.25402737      32.05493605
Zn      27.55505204      47.13961184      30.16935158
Zn      27.55505204      45.25402737      35.82610499
Zn      27.55505204      47.13961184      33.94052052
Zn      27.55505204      49.02519631       1.88558447
Zn      27.55505204      50.91078078       0.00000000
Zn      27.55505204      49.02519631       5.65675342
Zn      27.55505204      50.91078078       3.77116895
Zn      27.55505204      49.02519631       9.42792236
Zn      27.55505204      50.91078078       7.54233789
Zn      27.55505204      49.02519631      13.19909131
Zn      27.55505204      50.91078078      11.31350684
Zn      27.55505204      49.02519631      16.97026026
Zn      27.55505204      50.91078078      15.08467579
Zn      27.55505204      49.02519631      20.74142921
Zn      27.55505204      50.91078078      18.85584474
Zn      27.55505204      49.02519631      24.51259815
Zn      27.55505204      50.91078078      22.62701368
Zn      27.55505204      49.02519631      28.28376710
Zn      27.55505204      50.91078078      26.39818263
Zn      27.55505204      49.02519631      32.05493605
Zn      27.55505204      50.91078078      30.16935158
Zn      27.55505204      49.02519631      35.82610499
Zn      27.55505204      50.91078078      33.94052052
Zn      27.55505204      52.79636526       1.88558447
Zn      27.55505204      54.68194973       0.00000000
Zn      27.55505204      52.79636526       5.65675342
Zn      27.55505204      54.68194973       3.77116895
Zn      27.55505204      52.79636526       9.42792236
Zn      27.55505204      54.68194973       7.54233789
Zn      27.55505204      52.79636526      13.19909131
Zn      27.55505204      54.68194973      11.31350684
Zn      27.55505204      52.79636526      16.97026026
Zn      27.55505204      54.68194973      15.08467579
Zn      27.55505204      52.79636526      20.74142921
Zn      27.55505204      54.68194973      18.85584474
Zn      27.55505204      52.79636526      24.51259815
Zn      27.55505204      54.68194973      22.62701368
Zn      27.55505204      52.79636526      28.28376710
Zn      27.55505204      54.68194973      26.39818263
Zn      27.55505204      52.79636526      32.05493605
Zn      27.55505204      54.68194973      30.16935158
Zn      27.55505204      52.79636526      35.82610499
Zn      27.55505204      54.68194973      33.94052052
Zn      27.55505204      56.56753421       1.88558447
Zn      27.55505204      58.45311868       0.00000000
Zn      27.55505204      56.56753421       5.65675342
Zn      27.55505204      58.45311868       3.77116895
Zn      27.55505204      56.56753421       9.42792236
Zn      27.55505204      58.45311868       7.54233789
Zn      27.55505204      56.56753421      13.19909131
Zn      27.55505204      58.45311868      11.31350684
Zn      27.55505204      56.56753421      16.97026026
Zn      27.55505204      58.45311868      15.08467579
Zn      27.55505204      56.56753421      20.74142921
Zn      27.55505204      58.45311868      18.85584474
Zn      27.55505204      56.56753421      24.51259815
Zn      27.55505204      58.45311868      22.62701368
Zn      27.55505204      56.56753421      28.28376710
Zn      27.55505204      58.45311868      26.39818263
Zn      27.55505204      56.56753421      32.05493605
Zn      27.55505204      58.45311868      30.16935158
Zn      27.55505204      56.56753421      35.82610499
Zn      27.55505204      58.45311868      33.94052052
Zn      31.22905898       0.00000000       1.88558447
Zn      31.22905898       1.88558447       0.00000000
Zn      31.22905898       0.00000000       5.65675342
Zn      31.22905898       1.88558447       3.77116895
Zn      31.22905898       0.00000000       9.42792236
Zn      31.22905898       1.88558447       7.54233789
Zn      31.22905898       0.00000000      13.19909131
Zn      31.22905898       1.88558447      11.31350684
Zn      31.22905898       0.00000000      16.97026026
Zn      31.22905898       1.88558447      15.08467579
Zn      31.22905898       0.00000000      20.74142921
Zn      31.22905898       1.88558447      18.85584474
Zn      31.22905898       0.00000000      24.51259815
Zn      31.22905898       1.88558447      22.62701368
Zn      31.22905898       0.00000000      28.28376710
Zn      31.22905898       1.88558447      26.39818263
Zn      31.22905898       0.00000000      32.05493605
Zn      31.22905898       1.88558447      30.16935158
Zn      31.22905898       0.00000000      35.82610499
Zn      31.22905898       1.88558447      33.94052052
Zn      31.22905898       3.77116895       1.88558447
Zn      31.22905898       5.65675342       0.00000000
Zn      31.22905898       3.77116895       5.65675342
Zn      31.22905898       5.65675342       3.77116895
Zn      31.22905898       3.77116895       9.42792236
Zn      31.22905898       5.65675342       7.54233789
Zn      31.22905898       3.77116895      13.19909131
Zn      31.22905898       5.65675342      11.31350684
Zn      31.22905898       3.77116895      16.97026026
Zn      31.22905898       5.65675342      15.08467579
Zn      31.22905898       3.77116895      20.74142921
Zn      31.22905898       5.65675342      18.85584474
Zn      31.22905898       3.77116895      24.51259815
Zn      31.22905898       5.65675342      22.62701368
Zn      31.22905898       3.77116895      28.28376710
Zn      31.22905898       5.65675342      26.39818263
Zn      31.22905898       3.77116895      32.05493605
Zn      31.22905898       5.65675342      30.16935158
Zn      31.22905898       3.77116895      35.82610499
Zn      31.22905898       5.65675342      33.94052052
Zn      31.22905898       7.54233789       1.88558447
Zn      31.22905898       9.42792236       0.00000000
Zn      31.22905898       7.54233789       5.65675342
Zn      31.22905898       9.42792236       3.77116895
Zn      31.22905898       7.54233789       9.42792236
Zn      31.22905898       9.42792236       7.54233789
Zn      31.22905898       7.54233789      13.19909131
Zn      31.22905898       9.42792236      11.31350684
Zn      31.22905898       7.54233789      16.97026026
Zn      31.22905898       9.42792236      15.08467579
Zn      31.22905898       7.54233789      20.74142921
Zn      31.22905898       9.42792236      18.85584474
Zn      31.22905898       7.54233789      24.51259815
Zn      31.22905898       9.42792236      22.62701368
Zn      31.22905898       7.54233789      28.28376710
Zn      31.22905898       9.42792236      26.39818263
Zn      31.22905898       7.54233789      32.05493605
Zn      31.22905898       9.42792236      30.16935158
Zn      31.22905898       7.54233789      35.82610499
Zn      31.22905898       9.42792236      33.94052052
Zn      31.22905898      11.31350684       1.88558447
Zn      31.22905898      13.19909131       0.00000000
Zn      31.22905898      11.31350684       5.65675342
Zn      31.22905898      13.19909131       3.77116895
Zn      31.22905898      11.31350684       9.42792236
Zn      31.22905898      13.19909131       7.54233789
Zn      31.22905898      11.31350684      13.19909131
Zn      31.22905898      13.19909131      11.31350684
Zn      31.22905898      11.31350684      16.97026026
Zn      31.22905898      13.19909131      15.08467579
Zn      31.22905898      11.31350684      20.74142921
Zn      31.22905898      13.19909131      18.85584474
Zn      31.22905898      11.31350684      24.51259815
Zn      31.22905898      13.19909131      22.62701368
Zn      31.22905898      11.31350684      28.28376710
Zn      31.22905898      13.19909131      26.39818263
Zn      31.22905898      11.31350684      32.05493605
Zn      31.22905898      13.19909131      30.16935158
Zn      31.22905898      11.31350684      35.82610499
Zn      31.22905898      13.19909131      33.94052052
Zn      31.22905898      15.08467579       1.88558447
Zn      31.22905898      16.97026026       0.00000000
Zn      31.22905898      15.08467579       5.65675342
Zn      31.22905898      16.97026026       3.77116895
Zn      31.22905898      15.08467579       9.42792236
Zn      31.22905898      16.97026026       7.54233789
Zn      31.22905898      15.08467579      13.19909131
Zn      31.22905898      16.97026026      11.31350684
Zn      31.22905898      15.08467579      16.97026026
Zn      31.22905898      16.97026026      15.08467579
Zn      31.22905898      15.08467579      20.74142921
Zn      31.22905898      16.97026026      18.85584474
Zn      31.22905898      15.08467579      24.51259815
Zn      31.22905898      16.97026026      22.62701368
Zn      31.22905898      15.08467579      28.28376710
Zn      31.22905898      16.97026026      26.39818263
Zn      31.22905898      15.08467579      32.05493605
Zn      31.22905898      16.97026026      30.16935158
Zn      31.22905898      15.08467579      35.82610499
Zn      31.22905898      16.97026026      33.94052052
Zn      31.22905898      18.85584474       1.88558447
Zn      31.22905898      20.74142921       0.00000000
Zn      31.22905898      18.85584474       5.65675342
Zn      31.22905898      20.74142921       3.77116895
Zn      31.22905898      18.85584474       9.42792236
Zn      31.22905898      20.74142921       7.54233789
Zn      31.22905898      18.85584474      13.19909131
Zn      31.22905898      20.74142921      11.31350684
Zn      31.22905898      18.85584474      16.97026026
Zn      31.22905898      20.74142921      15.08467579
Zn      31.22905898      18.85584474      20.74142921
Zn      31.22905898      20.74142921      18.85584474
Zn      31.22905898      18.85584474      24.51259815
Zn      31.22905898      20.74142921      22.62701368
Zn      31.22905898      18.85584474      28.28376710
Zn      31.22905898      20.74142921      26.39818263
Zn      31.22905898      18.85584474      32.05493605
Zn      31.22905898      20.74142921      30.16935158
Zn      31.22905898      18.85584474      35.82610499
Zn      31.22905898      20.74142921      33.94052052
Zn      31.22905898      22.62701368       1.88558447
Zn      31.22905898      24.51259815       0.00000000
Zn      31.22905898      22.62701368       5.65675342
Zn      31.22905898      24.51259815       3.77116895
Zn      31.22905898      22.62701368       9.42792236
Zn      31.22905898      24.51259815       7.54233789
Zn      31.22905898      22.62701368      13.19909131
Zn      31.22905898      24.51259815      11.31350684
Zn      31.22905898      22.62701368      16.97026026
Zn      31.22905898      24.51259815      15.08467579
Zn      31.22905898      22.62701368      20.74142921
Zn      31.22905898      24.51259815      18.85584474
Zn      31.22905898      22.62701368      24.51259815
Zn      31.22905898      24.51259815      22.62701368
Zn      31.22905898      22.62701368      28.28376710
Zn      31.22905898      24.51259815      26.39818263
Zn      31.22905898      22.62701368      32.05493605
Zn      31.22905898      24.51259815      30.16935158
Zn      31.22905898      22.62701368      35.82610499
Zn      31.22905898      24.51259815      33.94052052
Zn      31.22905898      26.39818263       1.88558447
Zn      31.22905898      28.28376710       0.00000000
Zn      31.22905898      26.39818263       5.65675342
Zn      31.22905898      28.28376710       3.77116895
Zn      31.22905898      26.39818263       9.42792236
Zn      31.22905898      28.28376710       7.54233789
Zn      31.22905898      26.39818263      13.19909131
Zn      31.22905898      28.28376710      11.31350684
Zn      31.22905898      26.39818263      16.97026026
Zn      31.22905898      28.28376710      15.08467579
Zn      31.22905898      26.39818263      20.74142921
Zn      31.22905898      28.28376710      18.85584474
Zn      31.22905898      26.39818263      24.51259815
Zn      31.22905898      28.28376710      22.62701368
Zn      31.22905898      26.39818263      28.28376710
Zn      31.22905898      28.28376710      26.39818263
Zn      31.22905898      26.39818263      32.05493605
Zn      31.22905898      28.28376710      30.16935158
Zn      31.22905898      26.39818263      35.82610499
Zn      31.22905898      28.28376710      33.94052052
Zn      31.22905898      30.16935158       1.88558447
Zn      31.22905898      32.05493605       0.00000000
Zn      31.22905898      30.16935158       5.65675342
Zn      31.22905898      32.05493605       3.77116895
Zn      31.22905898      30.16935158       9.42792236
Zn      31.22905898      32.05493605       7.54233789
Zn      31.22905898      30.16935158      13.19909131
Zn      31.22905898      32.05493605      11.31350684
Zn      31.22905898      30.16935158      16.97026026
Zn      31.22905898      32.05493605      15.08467579
Zn      31.22905898      30.16935158      20.74142921
Zn      31.22905898      32.05493605      18.85584474
Zn      31.22905898      30.16935158      24.51259815
Zn      31.22905898      32.05493605      22.62701368
Zn      31.22905898      30.16935158      28.28376710
Zn      31.22905898      32.05493605      26.39818263
Zn      31.22905898      30.16935158      32.05493605
Zn      31.22905898      32.05493605      30.16935158
Zn      31.22905898      30.16935158      35.82610499
Zn      31.22905898      32.05493605      33.94052052
Zn      31.22905898      33.94052052       1.88558447
Zn      31.22905898      35.82610499       0.00000000
Zn      31.22905898      33.94052052       5.65675342
Zn      31.22905898      35.82610499       3.77116895
Zn      31.22905898      33.94052052       9.42792236
Zn      31.22905898      35.82610499       7.54233789
Zn      31.22905898      33.94052052      13.19909131
Zn      31.22905898      35.82610499      11.31350684
Zn      31.22905898      33.94052052      16.97026026
Zn      31.22905898      35.82610499      15.08467579
Zn      31.22905898      33.94052052      20.74142921
Zn      31.22905898      35.82610499      18.85584474
Zn      31.22905898      33.94052052      24.51259815
Zn      31.22905898      35.82610499      22.62701368
Zn      31.22905898      33.94052052      28.28376710
Zn      31.22905898      35.82610499      26.39818263
Zn      31.22905898      33.94052052      32.05493605
Zn      31.22905898      35.82610499      30.16935158
Zn      31.22905898      33.94052052      35.82610499
Zn      31.22905898      35.82610499      33.94052052
Zn      31.22905898      37.71168947       1.88558447
Zn      31.22905898      39.59727394       0.00000000
Zn      31.22905898      37.71168947       5.65675342
Zn      31.22905898      39.59727394       3.77116895
Zn      31.22905898      37.71168947       9.42792236
Zn      31.22905898      39.59727394       7.54233789
Zn      31.22905898      37.71168947      13.19909131
Zn      31.22905898      39.59727394      11.31350684
Zn      31.22905898      37.71168947      16.97026026
Zn      31.22905898      39.59727394      15.08467579
Zn      31.22905898      37.71168947      20.74142921
Zn      31.22905898      39.59727394      18.85584474
Zn      31.22905898      37.71168947      24.51259815
Zn      31.22905898      39.59727394      22.62701368
Zn      31.22905898      37.71168947      28.28376710
Zn      31.22905898      39.59727394      26.39818263
Zn      31.22905898      37.71168947      32.05493605
Zn      31.22905898      39.59727394      30.16935158
Zn      31.22905898      37.71168947      35.82610499
Zn      31.22905898      39.59727394      33.94052052
Zn      31.22905898      41.48285842       1.88558447
Zn      31.22905898      43.36844289       0.00000000
Zn      31.22905898      41.48285842       5.65675342
Zn      31.22905898      43.36844289       3.77116895
Zn      31.22905898      41.48285842       9.42792236
Zn      31.22905898      43.36844289       7.54233789
Zn      31.22905898      41.48285842      13.19909131
Zn      31.22905898      43.36844289      11.31350684
Zn      31.22905898      41.48285842      16.97026026
Zn      31.22905898      43.36844289      15.08467579
Zn      31.22905898      41.48285842      20.74142921
Zn      31.22905898      43.36844289      18.85584474
Zn      31.22905898      41.48285842      24.51259815
Zn      31.22905898      43.36844289      22.62701368
Zn      31.22905898      41.48285842      28.28376710
Zn      31.22905898      43.36844289      26.39818263
Zn      31.22905898      41.48285842      32.05493605
Zn      31.22905898      43.36844289      30.16935158
Zn      31.22905898      41.48285842      35.82610499
Zn      31.22905898      43.36844289      33.94052052
Zn      31.22905898      45.25402737       1.88558447
Zn      31.22905898      47.13961184       0.00000000
Zn      31.22905898      45.25402737       5.65675342
Zn      31.22905898      47.13961184       3.77116895
Zn      31.22905898      45.25402737       9.42792236
Zn      31.22905898      47.13961184       7.54233789
Zn      31.22905898      45.25402737      13.19909131
Zn      31.22905898      47.13961184      11.31350684
Zn      31.22905898      45.25402737      16.97026026
Zn      31.22905898      47.13961184      15.08467579
Zn      31.22905898      45.25402737      20.74142921
Zn      31.22905898      47.13961184      18.85584474
Zn      31.22905898      45.25402737      24.51259815
Zn      31.22905898      47.13961184      22.62701368
Zn      31.22905898      45.25402737      28.28376710
Zn      31.22905898      47.13961184      26.39818263
Zn      31.22905898      45.25402737      32.05493605
Zn      31.22905898      47.13961184      30.16935158
Zn      31.22905898      45.25402737      35.82610499
Zn      31.22905898      47.13961184      33.94052052
Zn      31.22905898      49.02519631       1.88558447
Zn      31.22905898      50.91078078       0.00000000
Zn      31.22905898      49.02519631       5.65675342
Zn      31.22905898      50.91078078       3.77116895
Zn      31.22905898      49.02519631       9.42792236
Zn      31.22905898      50.91078078       7.54233789
Zn      31.22905898      49.02519631      13.19909131
Zn      31.22905898      50.91078078      11.31350684
Zn      31.22905898      49.02519631      16.97026026
Zn      31.22905898      50.91078078      15.08467579
Zn      31.22905898      49.02519631      20.74142921
Zn      31.22905898      50.91078078      18.85584474
Zn      31.22905898      49.02519631      24.51259815
Zn      31.22905898      50.91078078      22.62701368
Zn      31.22905898      49.02519631      28.28376710
Zn      31.22905898      50.91078078      26.39818263
Zn      31.22905898      49.02519631      32.05493605
Zn      31.22905898      50.91078078      30.16935158
Zn      31.22905898      49.02519631      35.82610499
Zn      31.22905898      50.91078078      33.94052052
Zn      31.22905898      52.79636526       1.88558447
Zn      31.22905898      54.68194973       0.00000000
Zn      31.22905898      52.79636526       5.65675342
Zn      31.22905898      54.68194973       3.77116895
Zn      31.22905898      52.79636526       9.42792236
Zn      31.22905898      54.68194973       7.54233789
Zn      31.22905898      52.79636526      13.19909131
Zn      31.22905898      54.68194973      11.31350684
Zn      31.22905898      52.79636526      16.97026026
Zn      31.22905898      54.68194973      15.08467579
Zn      31.22905898      52.79636526      20.74142921
Zn      31.22905898      54.68194973      18.85584474
Zn      31.22905898      52.79636526      24.51259815
Zn      31.22905898      54.68194973      22.62701368
Zn      31.22905898      52.79636526      28.28376710
Zn      31.22905898      54.68194973      26.39818263
Zn      31.22905898      52.79636526      32.05493605
Zn      31.22905898      54.68194973      30.16935158
Zn      31.22905898      52.79636526      35.82610499
Zn      31.22905898      54.68194973      33.94052052
Zn      31.22905898      56.56753421       1.88558447
Zn      31.22905898      58.45311868       0.00000000
Zn      31.22905898      56.56753421       5.65675342
Zn      31.22905898      58.45311868       3.77116895
Zn      31.22905898      56.56753421       9.42792236
Zn      31.22905898      58.45311868       7.54233789
Zn      31.22905898      56.56753421      13.19909131
Zn      31.22905898      58.45311868      11.31350684
Zn      31.22905898      56.56753421      16.97026026
Zn      31.22905898      58.45311868      15.08467579
Zn      31.22905898      56.56753421      20.74142921
Zn      31.22905898      58.45311868      18.85584474
Zn      31.22905898      56.56753421      24.51259815
Zn      31.22905898      58.45311868      22.62701368
Zn      31.22905898      56.56753421      28.28376710
Zn      31.22905898      58.45311868      26.39818263
Zn      31.22905898      56.56753421      32.05493605
Zn      31.22905898      58.45311868      30.16935158
Zn      31.22905898      56.56753421      35.82610499
Zn      31.22905898      58.45311868      33.94052052
Zn      34.90306592       0.00000000       1.88558447
Zn      34.90306592       1.88558447       0.00000000
Zn      34.90306592       0.00000000       5.65675342
Zn      34.90306592       1.88558447       3.77116895
Zn      34.90306592       0.00000000       9.42792236
Zn      34.90306592       1.88558447       7.54233789
Zn      34.90306592       0.00000000      13.19909131
Zn      34.90306592       1.88558447      11.31350684
Zn      34.90306592       0.00000000      16.97026026
Zn      34.90306592       1.88558447      15.08467579
Zn      34.90306592       0.00000000      20.74142921
Zn      34.90306592       1.88558447      18.85584474
Zn      34.90306592       0.00000000      24.51259815
Zn      34.90306592       1.88558447      22.62701368
Zn      34.90306592       0.00000000      28.28376710
Zn      34.90306592       1.88558447      26.39818263
Zn      34.90306592       0.00000000      32.05493605
Zn      34.90306592       1.88558447      30.16935158
Zn      34.90306592       0.00000000      35.82610499
Zn      34.90306592       1.88558447      33.94052052
Zn      34.90306592       3.77116895       1.88558447
Zn      34.90306592       5.65675342       0.00000000
Zn      34.90306592       3.77116895       5.65675342
Zn      34.90306592       5.65675342       3.77116895
Zn      34.90306592       3.77116895       9.42792236
Zn      34.90306592       5.65675342       7.54233789
Zn      34.90306592       3.77116895      13.19909131
Zn      34.90306592       5.65675342      11.31350684
Zn      34.90306592       3.77116895      16.97026026
Zn      34.90306592       5.65675342      15.08467579
Zn      34.90306592       3.77116895      20.74142921
Zn      34.90306592       5.65675342      18.85584474
Zn      34.90306592       3.77116895      24.51259815
Zn      34.90306592       5.65675342      22.62701368
Zn      34.90306592       3.77116895      28.28376710
Zn      34.90306592       5.65675342      26.39818263
Zn      34.90306592       3.77116895      32.05493605
Zn      34.90306592       5.65675342      30.16935158
Zn      34.90306592       3.77116895      35.82610499
Zn      34.90306592       5.65675342      33.94052052
Zn      34.90306592       7.54233789       1.88558447
Zn      34.90306592       9.42792236       0.00000000
Zn      34.90306592       7.54233789       5.65675342
Zn      34.90306592       9.42792236       3.77116895
Zn      34.90306592       7.54233789       9.42792236
Zn      34.90306592       9.42792236       7.54233789
Zn      34.90306592       7.54233789      13.19909131
Zn      34.90306592       9.42792236      11.31350684
Zn      34.90306592       7.54233789      16.97026026
Zn      34.90306592       9.42792236      15.08467579
Zn      34.90306592       7.54233789      20.74142921
Zn      34.90306592       9.42792236      18.85584474
Zn      34.90306592       7.54233789      24.51259815
Zn      34.90306592       9.42792236      22.62701368
Zn      34.90306592       7.54233789      28.28376710
Zn      34.90306592       9.42792236      26.39818263
Zn      34.90306592       7.54233789      32.05493605
Zn      34.90306592       9.42792236      30.16935158
Zn      34.90306592       7.54233789      35.82610499
Zn      34.90306592       9.42792236      33.94052052
Zn      34.90306592      11.31350684       1.88558447
Zn      34.90306592      13.19909131       0.00000000
Zn      34.90306592      11.31350684       5.65675342
Zn      34.90306592      13.19909131       3.77116895
Zn      34.90306592      11.31350684       9.42792236
Zn      34.90306592      13.19909131       7.54233789
Zn      34.90306592      11.31350684      13.19909131
Zn      34.90306592      13.19909131      11.31350684
Zn      34.90306592      11.31350684      16.97026026
Zn      34.90306592      13.19909131      15.08467579
Zn      34.90306592      11.31350684      20.74142921
Zn      34.90306592      13.19909131      18.85584474
Zn      34.90306592      11.31350684      24.51259815
Zn      34.90306592      13.19909131      22.62701368
Zn      34.90306592      11.31350684      28.28376710
Zn      34.90306592      13.19909131      26.39818263
Zn      34.90306592      11.31350684      32.05493605
Zn      34.90306592      13.19909131      30.16935158
Zn      34.90306592      11.31350684      35.82610499
Zn      34.90306592      13.19909131      33.94052052
Zn      34.90306592      15.08467579       1.88558447
Zn      34.90306592      16.97026026       0.00000000
Zn      34.90306592      15.08467579       5.65675342
Zn      34.90306592      16.97026026       3.77116895
Zn      34.90306592      15.08467579       9.42792236
Zn      34.90306592      16.97026026       7.54233789
Zn      34.90306592      15.08467579      13.19909131
Zn      34.90306592      16.97026026      11.31350684
Zn      34.90306592      15.08467579      16.97026026
Zn      34.90306592      16.97026026      15.08467579
Zn      34.90306592      15.08467579      20.74142921
Zn      34.90306592      16.97026026      18.85584474
Zn      34.90306592      15.08467579      24.51259815
Zn      34.90306592      16.97026026      22.62701368
Zn      34.90306592      15.08467579      28.28376710
Zn      34.90306592      16.97026026      26.39818263
Zn      34.90306592      15.08467579      32.05493605
Zn      34.90306592      16.97026026      30.16935158
Zn      34.90306592      15.08467579      35.82610499
Zn      34.90306592      16.97026026      33.94052052
Zn      34.90306592      18.85584474       1.88558447
Zn      34.90306592      20.74142921       0.00000000
Zn      34.90306592      18.85584474       5.65675342
Zn      34.90306592      20.74142921       3.77116895
Zn      34.90306592      18.85584474       9.42792236
Zn      34.90306592      20.74142921       7.54233789
Zn      34.90306592      18.85584474      13.19909131
Zn      34.90306592      20.74142921      11.31350684
Zn      34.90306592      18.85584474      16.97026026
Zn      34.90306592      20.74142921      15.08467579
Zn      34.90306592      18.85584474      20.74142921
Zn      34.90306592      20.74142921      18.85584474
Zn      34.90306592      18.85584474      24.51259815
Zn      34.90306592      20.74142921      22.62701368
Zn      34.90306592      18.85584474      28.28376710
Zn      34.90306592      20.74142921      26.39818263
Zn      34.90306592      18.85584474      32.05493605
Zn      34.90306592      20.74142921      30.16935158
Zn      34.90306592      18.85584474      35.82610499
Zn      34.90306592      20.74142921      33.94052052
Zn      34.90306592      22.62701368       1.88558447
Zn      34.90306592      24.51259815       0.00000000
Zn      34.90306592      22.62701368       5.65675342
Zn      34.90306592      24.51259815       3.77116895
Zn      34.90306592      22.62701368       9.42792236
Zn      34.90306592      24.51259815       7.54233789
Zn      34.90306592      22.62701368      13.19909131
Zn      34.90306592      24.51259815      11.31350684
Zn      34.90306592      22.62701368      16.97026026
Zn      34.90306592      24.51259815      15.08467579
Zn      34.90306592      22.62701368      20.74142921
Zn      34.90306592      24.51259815      18.85584474
Zn      34.90306592      22.62701368      24.51259815
Zn      34.90306592      24.51259815      22.62701368
Zn      34.90306592      22.62701368      28.28376710
Zn      34.90306592      24.51259815      26.39818263
Zn      34.90306592      22.62701368      32.05493605
Zn      34.90306592      24.51259815      30.16935158
Zn      34.90306592      22.62701368      35.82610499
Zn      34.90306592      24.51259815      33.94052052
Zn      34.90306592      26.39818263       1.88558447
Zn      34.90306592      28.28376710       0.00000000
Zn      34.90306592      26.39818263       5.65675342
Zn      34.90306592      28.28376710       3.77116895
Zn      34.90306592      26.39818263       9.42792236
Zn      34.90306592      28.28376710       7.54233789
Zn      34.90306592      26.39818263      13.19909131
Zn      34.90306592      28.28376710      11.31350684
Zn      34.90306592      26.39818263      16.97026026
Zn      34.90306592      28.28376710      15.08467579
Zn      34.90306592      26.39818263      20.74142921
Zn      34.90306592      28.28376710      18.85584474
Zn      34.90306592      26.39818263      24.51259815
Zn      34.90306592      28.28376710      22.62701368
Zn      34.90306592      26.39818263      28.28376710
Zn      34.90306592      28.28376710      26.39818263
Zn      34.90306592      26.39818263      32.05493605
Zn      34.90306592      28.28376710      30.16935158
Zn      34.90306592      26.39818263      35.82610499
Zn      34.90306592      28.28376710      33.94052052
Zn      34.90306592      30.16935158       1.88558447
Zn      34.90306592      32.05493605       0.00000000
Zn      34.90306592      30.16935158       5.65675342
Zn      34.90306592      32.05493605       3.77116895
Zn      34.90306592      30.16935158       9.42792236
Zn      34.90306592      32.05493605       7.54233789
Zn      34.90306592      30.16935158      13.19909131
Zn      34.90306592      32.05493605      11.31350684
Zn      34.90306592      30.16935158      16.97026026
Zn      34.90306592      32.05493605      15.08467579
Zn      34.90306592      30.16935158      20.74142921
Zn      34.90306592      32.05493605      18.85584474
Zn      34.90306592      30.16935158      24.51259815
Zn      34.90306592      32.05493605      22.62701368
Zn      34.90306592      30.16935158      28.28376710
Zn      34.90306592      32.05493605      26.39818263
Zn      34.90306592      30.16935158      32.05493605
Zn      34.90306592      32.05493605      30.16935158
Zn      34.90306592      30.16935158      35.82610499
Zn      34.90306592      32.05493605      33.94052052
Zn      34.90306592      33.94052052       1.88558447
Zn      34.90306592      35.82610499       0.00000000
Zn      34.90306592      33.94052052       5.65675342
Zn      34.90306592      35.82610499       3.77116895
Zn      34.90306592      33.94052052       9.42792236
Zn      34.90306592      35.82610499       7.54233789
Zn      34.90306592      33.94052052      13.19909131
Zn      34.90306592      35.82610499      11.31350684
Zn      34.90306592      33.94052052      16.97026026
Zn      34.90306592      35.82610499      15.08467579
Zn      34.90306592      33.94052052      20.74142921
Zn      34.90306592      35.82610499      18.85584474
Zn      34.90306592      33.94052052      24.51259815
Zn      34.90306592      35.82610499      22.62701368
Zn      34.90306592      33.94052052      28.28376710
Zn      34.90306592      35.82610499      26.39818263
Zn      34.90306592      33.94052052      32.05493605
Zn      34.90306592      35.82610499      30.16935158
Zn      34.90306592      33.94052052      35.82610499
Zn      34.90306592      35.82610499      33.94052052
Zn      34.90306592      37.71168947       1.88558447
Zn      34.90306592      39.59727394       0.00000000
Zn      34.90306592      37.71168947       5.65675342
Zn      34.90306592      39.59727394       3.77116895
Zn      34.90306592      37.71168947       9.42792236
Zn      34.90306592      39.59727394       7.54233789
Zn      34.90306592      37.71168947      13.19909131
Zn      34.90306592      39.59727394      11.31350684
Zn      34.90306592      37.71168947      16.97026026
Zn      34.90306592      39.59727394      15.08467579
Zn      34.90306592      37.71168947      20.74142921
Zn      34.90306592      39.59727394      18.85584474
Zn      34.90306592      37.71168947      24.51259815
Zn      34.90306592      39.59727394      22.62701368
Zn      34.90306592      37.71168947      28.28376710
Zn      34.90306592      39.59727394      26.39818263
Zn      34.90306592      37.71168947      32.05493605
Zn      34.90306592      39.59727394      30.16935158
Zn      34.90306592      37.71168947      35.82610499
Zn      34.90306592      39.59727394      33.94052052
Zn      34.90306592      41.48285842       1.88558447
Zn      34.90306592      43.36844289       0.00000000
Zn      34.90306592      41.48285842       5.65675342
Zn      34.90306592      43.36844289       3.77116895
Zn      34.90306592      41.48285842       9.42792236
Zn      34.90306592      43.36844289       7.54233789
Zn      34.90306592      41.48285842      13.19909131
Zn      34.90306592      43.36844289      11.31350684
Zn      34.90306592      41.48285842      16.97026026
Zn      34.90306592      43.36844289      15.08467579
Zn      34.90306592      41.48285842      20.74142921
Zn      34.90306592      43.36844289      18.85584474
Zn      34.90306592      41.48285842      24.51259815
Zn      34.90306592      43.36844289      22.62701368
Zn      34.90306592      41.48285842      28.28376710
Zn      34.90306592      43.36844289      26.39818263
Zn      34.90306592      41.48285842      32.05493605
Zn      34.90306592      43.36844289      30.16935158
Zn      34.90306592      41.48285842      35.82610499
Zn      34.90306592      43.36844289      33.94052052
Zn      34.90306592      45.25402737       1.88558447
Zn      34.90306592      47.13961184       0.00000000
Zn      34.90306592      45.25402737       5.65675342
Zn      34.90306592      47.13961184       3.77116895
Zn      34.90306592      45.25402737       9.42792236
Zn      34.90306592      47.13961184       7.54233789
Zn      34.90306592      45.25402737      13.19909131
Zn      34.90306592      47.13961184      11.31350684
Zn      34.90306592      45.25402737      16.97026026
Zn      34.90306592      47.13961184      15.08467579
Zn      34.90306592      45.25402737      20.74142921
Zn      34.90306592      47.13961184      18.85584474
Zn      34.90306592      45.25402737      24.51259815
Zn      34.90306592      47.13961184      22.62701368
Zn      34.90306592      45.25402737      28.28376710
Zn      34.90306592      47.13961184      26.39818263
Zn      34.90306592      45.25402737      32.05493605
Zn      34.90306592      47.13961184      30.16935158
Zn      34.90306592      45.25402737      35.82610499
Zn      34.90306592      47.13961184      33.94052052
Zn      34.90306592      49.02519631       1.88558447
Zn      34.90306592      50.91078078       0.00000000
Zn      34.90306592      49.02519631       5.65675342
Zn      34.90306592      50.91078078       3.77116895
Zn      34.90306592      49.02519631       9.42792236
Zn      34.90306592      50.91078078       7.54233789
Zn      34.90306592      49.02519631      13.19909131
Zn      34.90306592      50.91078078      11.31350684
Zn      34.90306592      49.02519631      16.97026026
Zn      34.90306592      50.91078078      15.08467579
Zn      34.90306592      49.02519631      20.74142921
Zn      34.90306592      50.91078078      18.85584474
Zn      34.90306592      49.02519631      24.51259815
Zn      34.90306592      50.91078078      22.62701368
Zn      34.90306592      49.02519631      28.28376710
Zn      34.90306592      50.91078078      26.39818263
Zn      34.90306592      49.02519631      32.05493605
Zn      34.90306592      50.91078078      30.16935158
Zn      34.90306592      49.02519631      35.82610499
Zn      34.90306592      50.91078078      33.94052052
Zn      34.90306592      52.79636526       1.88558447
Zn      34.90306592      54.68194973       0.00000000
Zn      34.90306592      52.79636526       5.65675342
Zn      34.90306592      54.68194973       3.77116895
Zn      34.90306592      52.79636526       9.42792236
Zn      34.90306592      54.68194973       7.54233789
Zn      34.90306592      52.79636526      13.19909131
Zn      34.90306592      54.68194973      11.31350684
Zn      34.90306592      52.79636526      16.97026026
Zn      34.90306592      54.68194973      15.08467579
Zn      34.90306592      52.79636526      20.74142921
Zn      34.90306592      54.68194973      18.85584474
Zn      34.90306592      52.79636526      24.51259815
Zn      34.90306592      54.68194973      22.62701368
Zn      34.90306592      52.79636526      28.28376710
Zn      34.90306592      54.68194973      26.39818263
Zn      34.90306592      52.79636526      32.05493605
Zn      34.90306592      54.68194973      30.16935158
Zn      34.90306592      52.79636526      35.82610499
Zn      34.90306592      54.68194973      33.94052052
Zn      34.90306592      56.56753421       1.88558447
Zn      34.90306592      58.45311868       0.00000000
Zn      34.90306592      56.56753421       5.65675342
Zn      34.90306592      58.45311868       3.77116895
Zn      34.90306592      56.56753421       9.42792236
Zn      34.90306592      58.45311868       7.54233789
Zn      34.90306592      56.56753421      13.19909131
Zn      34.90306592      58.45311868      11.31350684
Zn      34.90306592      56.56753421      16.97026026
Zn      34.90306592      58.45311868      15.08467579
Zn      34.90306592      56.56753421      20.74142921
Zn      34.90306592      58.45311868      18.85584474
Zn      34.90306592      56.56753421      24.51259815
Zn      34.90306592      58.45311868      22.62701368
Zn      34.90306592      56.56753421      28.28376710
Zn      34.90306592      58.45311868      26.39818263
Zn      34.90306592      56.56753421      32.05493605
Zn      34.90306592      58.45311868      30.16935158
Zn      34.90306592      56.56753421      35.82610499
Zn      34.90306592      58.45311868      33.94052052
Zn      38.57707286       0.00000000       1.88558447
Zn      38.57707286       1.88558447       0.00000000
Zn      38.57707286       0.00000000       5.65675342
Zn      38.57707286       1.88558447       3.77116895
Zn      38.57707286       0.00000000       9.42792236
Zn      38.57707286       1.88558447       7.54233789
Zn      38.57707286       0.00000000      13.19909131
Zn      38.57707286       1.88558447      11.31350684
Zn      38.57707286       0.00000000      16.97026026
Zn      38.57707286       1.88558447      15.08467579
Zn      38.57707286       0.00000000      20.74142921
Zn      38.57707286       1.88558447      18.85584474
Zn      38.57707286       0.00000000      24.51259815
Zn      38.57707286       1.88558447      22.62701368
Zn      38.57707286       0.00000000      28.28376710
Zn      38.57707286       1.88558447      26.39818263
Zn      38.57707286       0.00000000      32.05493605
Zn      38.57707286       1.88558447      30.16935158
Zn      38.57707286       0.00000000      35.82610499
Zn      38.57707286       1.88558447      33.94052052
Zn      38.57707286       3.77116895       1.88558447
Zn      38.57707286       5.65675342       0.00000000
Zn      38.57707286       3.77116895       5.65675342
Zn      38.57707286       5.65675342       3.77116895
Zn      38.57707286       3.77116895       9.42792236
Zn      38.57707286       5.65675342       7.54233789
Zn      38.57707286       3.77116895      13.19909131
Zn      38.57707286       5.65675342      11.31350684
Zn      38.57707286       3.77116895      16.97026026
Zn      38.57707286       5.65675342      15.08467579
Zn      38.57707286       3.77116895      20.74142921
Zn      38.57707286       5.65675342      18.85584474
Zn      38.57707286       3.77116895      24.51259815
Zn      38.57707286       5.65675342      22.62701368
Zn      38.57707286       3.77116895      28.28376710
Zn      38.57707286       5.65675342      26.39818263
Zn      38.57707286       3.77116895      32.05493605
Zn      38.57707286       5.65675342      30.16935158
Zn      38.57707286       3.77116895      35.82610499
Zn      38.57707286       5.65675342      33.94052052
Zn      38.57707286       7.54233789       1.88558447
Zn      38.57707286       9.42792236       0.00000000
Zn      38.57707286       7.54233789       5.65675342
Zn      38.57707286       9.42792236       3.77116895
Zn      38.57707286       7.54233789       9.42792236
Zn      38.57707286       9.42792236       7.54233789
Zn      38.57707286       7.54233789      13.19909131
Zn      38.57707286       9.42792236      11.31350684
Zn      38.57707286       7.54233789      16.97026026
Zn      38.57707286       9.42792236      15.08467579
Zn      38.57707286       7.54233789      20.74142921
Zn      38.57707286       9.42792236      18.85584474
Zn      38.57707286       7.54233789      24.51259815
Zn      38.57707286       9.42792236      22.62701368
Zn      38.57707286       7.54233789      28.28376710
Zn      38.57707286       9.42792236      26.39818263
Zn      38.57707286       7.54233789      32.05493605
Zn      38.57707286       9.42792236      30.16935158
Zn      38.57707286       7.54233789      35.82610499
Zn      38.57707286       9.42792236      33.94052052
Zn      38.57707286      11.31350684       1.88558447
Zn      38.57707286      13.19909131       0.00000000
Zn      38.57707286      11.31350684       5.65675342
Zn      38.57707286      13.19909131       3.77116895
Zn      38.57707286      11.31350684       9.42792236
Zn      38.57707286      13.19909131       7.54233789
Zn      38.57707286      11.31350684      13.19909131
Zn      38.57707286      13.19909131      11.31350684
Zn      38.57707286      11.31350684      16.97026026
Zn      38.57707286      13.19909131      15.08467579
Zn      38.57707286      11.31350684      20.74142921
Zn      38.57707286      13.19909131      18.85584474
Zn      38.57707286      11.31350684      24.51259815
Zn      38.57707286      13.19909131      22.62701368
Zn      38.57707286      11.31350684      28.28376710
Zn      38.57707286      13.19909131      26.39818263
Zn      38.57707286      11.31350684      32.05493605
Zn      38.57707286      13.19909131      30.16935158
Zn      38.57707286      11.31350684      35.82610499
Zn      38.57707286      13.19909131      33.94052052
Zn      38.57707286      15.08467579       1.88558447
Zn      38.57707286      16.97026026       0.00000000
Zn      38.57707286      15.08467579       5.65675342
Zn      38.57707286      16.97026026       3.77116895
Zn      38.57707286      15.08467579       9.42792236
Zn      38.57707286      16.97026026       7.54233789
Zn      38.57707286      15.08467579      13.19909131
Zn      38.57707286      16.97026026      11.31350684
Zn      38.57707286      15.08467579      16.97026026
Zn      38.57707286      16.97026026      15.08467579
Zn      38.57707286      15.08467579      20.74142921
Zn      38.57707286      16.97026026      18.85584474
Zn      38.57707286      15.08467579      24.51259815
Zn      38.57707286      16.97026026      22.62701368
Zn      38.57707286      15.08467579      28.28376710
Zn      38.57707286      16.97026026      26.39818263
Zn      38.57707286      15.08467579      32.05493605
Zn      38.57707286      16.97026026      30.16935158
Zn      38.57707286      15.08467579      35.82610499
Zn      38.57707286      16.97026026      33.94052052
Zn      38.57707286      18.85584474       1.88558447
Zn      38.57707286      20.74142921       0.00000000
Zn      38.57707286      18.85584474       5.65675342
Zn      38.57707286      20.74142921       3.77116895
Zn      38.57707286      18.85584474       9.42792236
Zn      38.57707286      20.74142921       7.54233789
Zn      38.57707286      18.85584474      13.19909131
Zn      38.57707286      20.74142921      11.31350684
Zn      38.57707286      18.85584474      16.97026026
Zn      38.57707286      20.74142921      15.08467579
Zn      38.57707286      18.85584474      20.74142921
Zn      38.57707286      20.74142921      18.85584474
Zn      38.57707286      18.85584474      24.51259815
Zn      38.57707286      20.74142921      22.62701368
Zn      38.57707286      18.85584474      28.28376710
Zn      38.57707286      20.74142921      26.39818263
Zn      38.57707286      18.85584474      32.05493605
Zn      38.57707286      20.74142921      30.16935158
Zn      38.57707286      18.85584474      35.82610499
Zn      38.57707286      20.74142921      33.94052052
Zn      38.57707286      22.62701368       1.88558447
Zn      38.57707286      24.51259815       0.00000000
Zn      38.57707286      22.62701368       5.65675342
Zn      38.57707286      24.51259815       3.77116895
Zn      38.57707286      22.62701368       9.42792236
Zn      38.57707286      24.51259815       7.54233789
Zn      38.57707286      22.62701368      13.19909131
Zn      38.57707286      24.51259815      11.31350684
Zn      38.57707286      22.62701368      16.97026026
Zn      38.57707286      24.51259815      15.08467579
Zn      38.57707286      22.62701368      20.74142921
Zn      38.57707286      24.51259815      18.85584474
Zn      38.57707286      22.62701368      24.51259815
Zn      38.57707286      24.51259815      22.62701368
Zn      38.57707286      22.62701368      28.28376710
Zn      38.57707286      24.51259815      26.39818263
Zn      38.57707286      22.62701368      32.05493605
Zn      38.57707286      24.51259815      30.16935158
Zn      38.57707286      22.62701368      35.82610499
Zn      38.57707286      24.51259815      33.94052052
Zn      38.57707286      26.39818263       1.88558447
Zn      38.57707286      28.28376710       0.00000000
Zn      38.57707286      26.39818263       5.65675342
Zn      38.57707286      28.28376710       3.77116895
Zn      38.57707286      26.39818263       9.42792236
Zn      38.57707286      28.28376710       7.54233789
Zn      38.57707286      26.39818263      13.19909131
Zn      38.57707286      28.28376710      11.31350684
Zn      38.57707286      26.39818263      16.97026026
Zn      38.57707286      28.28376710      15.08467579
Zn      38.57707286      26.39818263      20.74142921
Zn      38.57707286      28.28376710      18.85584474
Zn      38.57707286      26.39818263      24.51259815
Zn      38.57707286      28.28376710      22.62701368
Zn      38.57707286      26.39818263      28.28376710
Zn      38.57707286      28.28376710      26.39818263
Zn      38.57707286      26.39818263      32.05493605
Zn      38.57707286      28.28376710      30.16935158
Zn      38.57707286      26.39818263      35.82610499
Zn      38.57707286      28.28376710      33.94052052
Zn      38.57707286      30.16935158       1.88558447
Zn      38.57707286      32.05493605       0.00000000
Zn      38.57707286      30.16935158       5.65675342
Zn      38.57707286      32.05493605       3.77116895
Zn      38.57707286      30.16935158       9.42792236
Zn      38.57707286      32.05493605       7.54233789
Zn      38.57707286      30.16935158      13.19909131
Zn      38.57707286      32.05493605      11.31350684
Zn      38.57707286      30.16935158      16.97026026
Zn      38.57707286      32.05493605      15.08467579
Zn      38.57707286      30.16935158      20.74142921
Zn      38.57707286      32.05493605      18.85584474
Zn      38.57707286      30.16935158      24.51259815
Zn      38.57707286      32.05493605      22.62701368
Zn      38.57707286      30.16935158      28.28376710
Zn      38.57707286      32.05493605      26.39818263
Zn      38.57707286      30.16935158      32.05493605
Zn      38.57707286      32.05493605      30.16935158
Zn      38.57707286      30.16935158      35.82610499
Zn      38.57707286      32.05493605      33.94052052
Zn      38.57707286      33.94052052       1.88558447
Zn      38.57707286      35.82610499       0.00000000
Zn      38.57707286      33.94052052       5.65675342
Zn      38.57707286      35.82610499       3.77116895
Zn      38.57707286      33.94052052       9.42792236
Zn      38.57707286      35.82610499       7.54233789
Zn      38.57707286      33.94052052      13.19909131
Zn      38.57707286      35.82610499      11.31350684
Zn      38.57707286      33.94052052      16.97026026
Zn      38.57707286      35.82610499      15.08467579
Zn      38.57707286      33.94052052      20.74142921
Zn      38.57707286      35.82610499      18.85584474
Zn      38.57707286      33.94052052      24.51259815
Zn      38.57707286      35.82610499      22.62701368
Zn      38.57707286      33.94052052      28.28376710
Zn      38.57707286      35.82610499      26.39818263
Zn      38.57707286      33.94052052      32.05493605
Zn      38.57707286      35.82610499      30.16935158
Zn      38.57707286      33.94052052      35.82610499
Zn      38.57707286      35.82610499      33.94052052
Zn      38.57707286      37.71168947       1.88558447
Zn      38.57707286      39.59727394       0.00000000
Zn      38.57707286      37.71168947       5.65675342
Zn      38.57707286      39.59727394       3.77116895
Zn      38.57707286      37.71168947       9.42792236
Zn      38.57707286      39.59727394       7.54233789
Zn      38.57707286      37.71168947      13.19909131
Zn      38.57707286      39.59727394      11.31350684
Zn      38.57707286      37.71168947      16.97026026
Zn      38.57707286      39.59727394      15.08467579
Zn      38.57707286      37.71168947      20.74142921
Zn      38.57707286      39.59727394      18.85584474
Zn      38.57707286      37.71168947      24.51259815
Zn      38.57707286      39.59727394      22.62701368
Zn      38.57707286      37.71168947      28.28376710
Zn      38.57707286      39.59727394      26.39818263
Zn      38.57707286      37.71168947      32.05493605
Zn      38.57707286      39.59727394      30.16935158
Zn      38.57707286      37.71168947      35.82610499
Zn      38.57707286      39.59727394      33.94052052
Zn      38.57707286      41.48285842       1.88558447
Zn      38.57707286      43.36844289       0.00000000
Zn      38.57707286      41.48285842       5.65675342
Zn      38.57707286      43.36844289       3.77116895
Zn      38.57707286      41.48285842       9.42792236
Zn      38.57707286      43.36844289       7.54233789
Zn      38.57707286      41.48285842      13.19909131
Zn      38.57707286      43.36844289      11.31350684
Zn      38.57707286      41.48285842      16.97026026
Zn      38.57707286      43.36844289      15.08467579
Zn      38.57707286      41.48285842      20.74142921
Zn      38.57707286      43.36844289      18.85584474
Zn      38.57707286      41.48285842      24.51259815
Zn      38.57707286      43.36844289      22.62701368
Zn      38.57707286      41.48285842      28.28376710
Zn      38.57707286      43.36844289      26.39818263
Zn      38.57707286      41.48285842      32.05493605
Zn      38.57707286      43.36844289      30.16935158
Zn      38.57707286      41.48285842      35.82610499
Zn      38.57707286      43.36844289      33.94052052
Zn      38.57707286      45.25402737       1.88558447
Zn      38.57707286      47.13961184       0.00000000
Zn      38.57707286      45.25402737       5.65675342
Zn      38.57707286      47.13961184       3.77116895
Zn      38.57707286      45.25402737       9.42792236
Zn      38.57707286      47.13961184       7.54233789
Zn      38.57707286      45.25402737      13.19909131
Zn      38.57707286      47.13961184      11.31350684
Zn      38.57707286      45.25402737      16.97026026
Zn      38.57707286      47.13961184      15.08467579
Zn      38.57707286      45.25402737      20.74142921
Zn      38.57707286      47.13961184      18.85584474
Zn      38.57707286      45.25402737      24.51259815
Zn      38.57707286      47.13961184      22.62701368
Zn      38.57707286      45.25402737      28.28376710
Zn      38.57707286      47.13961184      26.39818263
Zn      38.57707286      45.25402737      32.05493605
Zn      38.57707286      47.13961184      30.16935158
Zn      38.57707286      45.25402737      35.82610499
Zn      38.57707286      47.13961184      33.94052052
Zn      38.57707286      49.02519631       1.88558447
Zn      38.57707286      50.91078078       0.00000000
Zn      38.57707286      49.02519631       5.65675342
Zn      38.57707286      50.91078078       3.77116895
Zn      38.57707286      49.02519631       9.42792236
Zn      38.57707286      50.91078078       7.54233789
Zn      38.57707286      49.02519631      13.19909131
Zn      38.57707286      50.91078078      11.31350684
Zn      38.57707286      49.02519631      16.97026026
Zn      38.57707286      50.91078078      15.08467579
Zn      38.57707286      49.02519631      20.74142921
Zn      38.57707286      50.91078078      18.85584474
Zn      38.57707286      49.02519631      24.51259815
Zn      38.57707286      50.91078078      22.62701368
Zn      38.57707286      49.02519631      28.28376710
Zn      38.57707286      50.91078078      26.39818263
Zn      38.57707286      49.02519631      32.05493605
Zn      38.57707286      50.91078078      30.16935158
Zn      38.57707286      49.02519631      35.82610499
Zn      38.57707286      50.91078078      33.94052052
Zn      38.57707286      52.79636526       1.88558447
Zn      38.57707286      54.68194973       0.00000000
Zn      38.57707286      52.79636526       5.65675342
Zn      38.57707286      54.68194973       3.77116895
Zn      38.57707286      52.79636526       9.42792236
Zn      38.57707286      54.68194973       7.54233789
Zn      38.57707286      52.79636526      13.19909131
Zn      38.57707286      54.68194973      11.31350684
Zn      38.57707286      52.79636526      16.97026026
Zn      38.57707286      54.68194973      15.08467579
Zn      38.57707286      52.79636526      20.74142921
Zn      38.57707286      54.68194973      18.85584474
Zn      38.57707286      52.79636526      24.51259815
Zn      38.57707286      54.68194973      22.62701368
Zn      38.57707286      52.79636526      28.28376710
Zn      38.57707286      54.68194973      26.39818263
Zn      38.57707286      52.79636526      32.05493605
Zn      38.57707286      54.68194973      30.16935158
Zn      38.57707286      52.79636526      35.82610499
Zn      38.57707286      54.68194973      33.94052052
Zn      38.57707286      56.56753421       1.88558447
Zn      38.57707286      58.45311868       0.00000000
Zn      38.57707286      56.56753421       5.65675342
Zn      38.57707286      58.45311868       3.77116895
Zn      38.57707286      56.56753421       9.42792236
Zn      38.57707286      58.45311868       7.54233789
Zn      38.57707286      56.56753421      13.19909131
Zn      38.57707286      58.45311868      11.31350684
Zn      38.57707286      56.56753421      16.97026026
Zn      38.57707286      58.45311868      15.08467579
Zn      38.57707286      56.56753421      20.74142921
Zn      38.57707286      58.45311868      18.85584474
Zn      38.57707286      56.56753421      24.51259815
Zn      38.57707286      58.45311868      22.62701368
Zn      38.57707286      56.56753421      28.28376710
Zn      38.57707286      58.45311868      26.39818263
Zn      38.57707286      56.56753421      32.05493605
Zn      38.57707286      58.45311868      30.16935158
Zn      38.57707286      56.56753421      35.82610499
Zn      38.57707286      58.45311868      33.94052052
Zn      42.25107980       0.00000000       1.88558447
Zn      42.25107980       1.88558447       0.00000000
Zn      42.25107980       0.00000000       5.65675342
Zn      42.25107980       1.88558447       3.77116895
Zn      42.25107980       0.00000000       9.42792236
Zn      42.25107980       1.88558447       7.54233789
Zn      42.25107980       0.00000000      13.19909131
Zn      42.25107980       1.88558447      11.31350684
Zn      42.25107980       0.00000000      16.97026026
Zn      42.25107980       1.88558447      15.08467579
Zn      42.25107980       0.00000000      20.74142921
Zn      42.25107980       1.88558447      18.85584474
Zn      42.25107980       0.00000000      24.51259815
Zn      42.25107980       1.88558447      22.62701368
Zn      42.25107980       0.00000000      28.28376710
Zn      42.25107980       1.88558447      26.39818263
Zn      42.25107980       0.00000000      32.05493605
Zn      42.25107980       1.88558447      30.16935158
Zn      42.25107980       0.00000000      35.82610499
Zn      42.25107980       1.88558447      33.94052052
Zn      42.25107980       3.77116895       1.88558447
Zn      42.25107980       5.65675342       0.00000000
Zn      42.25107980       3.77116895       5.65675342
Zn      42.25107980       5.65675342       3.77116895
Zn      42.25107980       3.77116895       9.42792236
Zn      42.25107980       5.65675342       7.54233789
Zn      42.25107980       3.77116895      13.19909131
Zn      42.25107980       5.65675342      11.31350684
Zn      42.25107980       3.77116895      16.97026026
Zn      42.25107980       5.65675342      15.08467579
Zn      42.25107980       3.77116895      20.74142921
Zn      42.25107980       5.65675342      18.85584474
Zn      42.25107980       3.77116895      24.51259815
Zn      42.25107980       5.65675342      22.62701368
Zn      42.25107980       3.77116895      28.28376710
Zn      42.25107980       5.65675342      26.39818263
Zn      42.25107980       3.77116895      32.05493605
Zn      42.25107980       5.65675342      30.16935158
Zn      42.25107980       3.77116895      35.82610499
Zn      42.25107980       5.65675342      33.94052052
Zn      42.25107980       7.54233789       1.88558447
Zn      42.25107980       9.42792236       0.00000000
Zn      42.25107980       7.54233789       5.65675342
Zn      42.25107980       9.42792236       3.77116895
Zn      42.25107980       7.54233789       9.42792236
Zn      42.25107980       9.42792236       7.54233789
Zn      42.25107980       7.54233789      13.19909131
Zn      42.25107980       9.42792236      11.31350684
Zn      42.25107980       7.54233789      16.97026026
Zn      42.25107980       9.42792236      15.08467579
Zn      42.25107980       7.54233789      20.74142921
Zn      42.25107980       9.42792236      18.85584474
Zn      42.25107980       7.54233789      24.51259815
Zn      42.25107980       9.42792236      22.62701368
Zn      42.25107980       7.54233789      28.28376710
Zn      42.25107980       9.42792236      26.39818263
Zn      42.25107980       7.54233789      32.05493605
Zn      42.25107980       9.42792236      30.16935158
Zn      42.25107980       7.54233789      35.82610499
Zn      42.25107980       9.42792236      33.94052052
Zn      42.25107980      11.31350684       1.88558447
Zn      42.25107980      13.19909131       0.00000000
Zn      42.25107980      11.31350684       5.65675342
Zn      42.25107980      13.19909131       3.77116895
Zn      42.25107980      11.31350684       9.42792236
Zn      42.25107980      13.19909131       7.54233789
Zn      42.25107980      11.31350684      13.19909131
Zn      42.25107980      13.19909131      11.31350684
Zn      42.25107980      11.31350684      16.97026026
Zn      42.25107980      13.19909131      15.08467579
Zn      42.25107980      11.31350684      20.74142921
Zn      42.25107980      13.19909131      18.85584474
Zn      42.25107980      11.31350684      24.51259815
Zn      42.25107980      13.19909131      22.62701368
Zn      42.25107980      11.31350684      28.28376710
Zn      42.25107980      13.19909131      26.39818263
Zn      42.25107980      11.31350684      32.05493605
Zn      42.25107980      13.19909131      30.16935158
Zn      42.25107980      11.31350684      35.82610499
Zn      42.25107980      13.19909131      33.94052052
Zn      42.25107980      15.08467579       1.88558447
Zn      42.25107980      16.97026026       0.00000000
Zn      42.25107980      15.08467579       5.65675342
Zn      42.25107980      16.97026026       3.77116895
Zn      42.25107980      15.08467579       9.42792236
Zn      42.25107980      16.97026026       7.54233789
Zn      42.25107980      15.08467579      13.19909131
Zn      42.25107980      16.97026026      11.31350684
Zn      42.25107980      15.08467579      16.97026026
Zn      42.25107980      16.97026026      15.08467579
Zn      42.25107980      15.08467579      20.74142921
Zn      42.25107980      16.97026026      18.85584474
Zn      42.25107980      15.08467579      24.51259815
Zn      42.25107980      16.97026026      22.62701368
Zn      42.25107980      15.08467579      28.28376710
Zn      42.25107980      16.97026026      26.39818263
Zn      42.25107980      15.08467579      32.05493605
Zn      42.25107980      16.97026026      30.16935158
Zn      42.25107980      15.08467579      35.82610499
Zn      42.25107980      16.97026026      33.94052052
Zn      42.25107980      18.85584474       1.88558447
Zn      42.25107980      20.74142921       0.00000000
Zn      42.25107980      18.85584474       5.65675342
Zn      42.25107980      20.74142921       3.77116895
Zn      42.25107980      18.85584474       9.42792236
Zn      42.25107980      20.74142921       7.54233789
Zn      42.25107980      18.85584474      13.19909131
Zn      42.25107980      20.74142921      11.31350684
Zn      42.25107980      18.85584474      16.97026026
Zn      42.25107980      20.74142921      15.08467579
Zn      42.25107980      18.85584474      20.74142921
Zn      42.25107980      20.74142921      18.85584474
Zn      42.25107980      18.85584474      24.51259815
Zn      42.25107980      20.74142921      22.62701368
Zn      42.25107980      18.85584474      28.28376710
Zn      42.25107980      20.74142921      26.39818263
Zn      42.25107980      18.85584474      32.05493605
Zn      42.25107980      20.74142921      30.16935158
Zn      42.25107980      18.85584474      35.82610499
Zn      42.25107980      20.74142921      33.94052052
Zn      42.25107980      22.62701368       1.88558447
Zn      42.25107980      24.51259815       0.00000000
Zn      42.25107980      22.62701368       5.65675342
Zn      42.25107980      24.51259815       3.77116895
Zn      42.25107980      22.62701368       9.42792236
Zn      42.25107980      24.51259815       7.54233789
Zn      42.25107980      22.62701368      13.19909131
Zn      42.25107980      24.51259815      11.31350684
Zn      42.25107980      22.62701368      16.97026026
Zn      42.25107980      24.51259815      15.08467579
Zn      42.25107980      22.62701368      20.74142921
Zn      42.25107980      24.51259815      18.85584474
Zn      42.25107980      22.62701368      24.51259815
Zn      42.25107980      24.51259815      22.62701368
Zn      42.25107980      22.62701368      28.28376710
Zn      42.25107980      24.51259815      26.39818263
Zn      42.25107980      22.62701368      32.05493605
Zn      42.25107980      24.51259815      30.16935158
Zn      42.25107980      22.62701368      35.82610499
Zn      42.25107980      24.51259815      33.94052052
Zn      42.25107980      26.39818263       1.88558447
Zn      42.25107980      28.28376710       0.00000000
Zn      42.25107980      26.39818263       5.65675342
Zn      42.25107980      28.28376710       3.77116895
Zn      42.25107980      26.39818263       9.42792236
Zn      42.25107980      28.28376710       7.54233789
Zn      42.25107980      26.39818263      13.19909131
Zn      42.25107980      28.28376710      11.31350684
Zn      42.25107980      26.39818263      16.97026026
Zn      42.25107980      28.28376710      15.08467579
Zn      42.25107980      26.39818263      20.74142921
Zn      42.25107980      28.28376710      18.85584474
Zn      42.25107980      26.39818263      24.51259815
Zn      42.25107980      28.28376710      22.62701368
Zn      42.25107980      26.39818263      28.28376710
Zn      42.25107980      28.28376710      26.39818263
Zn      42.25107980      26.39818263      32.05493605
Zn      42.25107980      28.28376710      30.16935158
Zn      42.25107980      26.39818263      35.82610499
Zn      42.25107980      28.28376710      33.94052052
Zn      42.25107980      30.16935158       1.88558447
Zn      42.25107980      32.05493605       0.00000000
Zn      42.25107980      30.16935158       5.65675342
Zn      42.25107980      32.05493605       3.77116895
Zn      42.25107980      30.16935158       9.42792236
Zn      42.25107980      32.05493605       7.54233789
Zn      42.25107980      30.16935158      13.19909131
Zn      42.25107980      32.05493605      11.31350684
Zn      42.25107980      30.16935158      16.97026026
Zn      42.25107980      32.05493605      15.08467579
Zn      42.25107980      30.16935158      20.74142921
Zn      42.25107980      32.05493605      18.85584474
Zn      42.25107980      30.16935158      24.51259815
Zn      42.25107980      32.05493605      22.62701368
Zn      42.25107980      30.16935158      28.28376710
Zn      42.25107980      32.05493605      26.39818263
Zn      42.25107980      30.16935158      32.05493605
Zn      42.25107980      32.05493605      30.16935158
Zn      42.25107980      30.16935158      35.82610499
Zn      42.25107980      32.05493605      33.94052052
Zn      42.25107980      33.94052052       1.88558447
Zn      42.25107980      35.82610499       0.00000000
Zn      42.25107980      33.94052052       5.65675342
Zn      42.25107980      35.82610499       3.77116895
Zn      42.25107980      33.94052052       9.42792236
Zn      42.25107980      35.82610499       7.54233789
Zn      42.25107980      33.94052052      13.19909131
Zn      42.25107980      35.82610499      11.31350684
Zn      42.25107980      33.94052052      16.97026026
Zn      42.25107980      35.82610499      15.08467579
Zn      42.25107980      33.94052052      20.74142921
Zn      42.25107980      35.82610499      18.85584474
Zn      42.25107980      33.94052052      24.51259815
Zn      42.25107980      35.82610499      22.62701368
Zn      42.25107980      33.94052052      28.28376710
Zn      42.25107980      35.82610499      26.39818263
Zn      42.25107980      33.94052052      32.05493605
Zn      42.25107980      35.82610499      30.16935158
Zn      42.25107980      33.94052052      35.82610499
Zn      42.25107980      35.82610499      33.94052052
Zn      42.25107980      37.71168947       1.88558447
Zn      42.25107980      39.59727394       0.00000000
Zn      42.25107980      37.71168947       5.65675342
Zn      42.25107980      39.59727394       3.77116895
Zn      42.25107980      37.71168947       9.42792236
Zn      42.25107980      39.59727394       7.54233789
Zn      42.25107980      37.71168947      13.19909131
Zn      42.25107980      39.59727394      11.31350684
Zn      42.25107980      37.71168947      16.97026026
Zn      42.25107980      39.59727394      15.08467579
Zn      42.25107980      37.71168947      20.74142921
Zn      42.25107980      39.59727394      18.85584474
Zn      42.25107980      37.71168947      24.51259815
Zn      42.25107980      39.59727394      22.62701368
Zn      42.25107980      37.71168947      28.28376710
Zn      42.25107980      39.59727394      26.39818263
Zn      42.25107980      37.71168947      32.05493605
Zn      42.25107980      39.59727394      30.16935158
Zn      42.25107980      37.71168947      35.82610499
Zn      42.25107980      39.59727394      33.94052052
Zn      42.25107980      41.48285842       1.88558447
Zn      42.25107980      43.36844289       0.00000000
Zn      42.25107980      41.48285842       5.65675342
Zn      42.25107980      43.36844289       3.77116895
Zn      42.25107980      41.48285842       9.42792236
Zn      42.25107980      43.36844289       7.54233789
Zn      42.25107980      41.48285842      13.19909131
Zn      42.25107980      43.36844289      11.31350684
Zn      42.25107980      41.48285842      16.97026026
Zn      42.25107980      43.36844289      15.08467579
Zn      42.25107980      41.48285842      20.74142921
Zn      42.25107980      43.36844289      18.85584474
Zn      42.25107980      41.48285842      24.51259815
Zn      42.25107980      43.36844289      22.62701368
Zn      42.25107980      41.48285842      28.28376710
Zn      42.25107980      43.36844289      26.39818263
Zn      42.25107980      41.48285842      32.05493605
Zn      42.25107980      43.36844289      30.16935158
Zn      42.25107980      41.48285842      35.82610499
Zn      42.25107980      43.36844289      33.94052052
Zn      42.25107980      45.25402737       1.88558447
Zn      42.25107980      47.13961184       0.00000000
Zn      42.25107980      45.25402737       5.65675342
Zn      42.25107980      47.13961184       3.77116895
Zn      42.25107980      45.25402737       9.42792236
Zn      42.25107980      47.13961184       7.54233789
Zn      42.25107980      45.25402737      13.19909131
Zn      42.25107980      47.13961184      11.31350684
Zn      42.25107980      45.25402737      16.97026026
Zn      42.25107980      47.13961184      15.08467579
Zn      42.25107980      45.25402737      20.74142921
Zn      42.25107980      47.13961184      18.85584474
Zn      42.25107980      45.25402737      24.51259815
Zn      42.25107980      47.13961184      22.62701368
Zn      42.25107980      45.25402737      28.28376710
Zn      42.25107980      47.13961184      26.39818263
Zn      42.25107980      45.25402737      32.05493605
Zn      42.25107980      47.13961184      30.16935158
Zn      42.25107980      45.25402737      35.82610499
Zn      42.25107980      47.13961184      33.94052052
Zn      42.25107980      49.02519631       1.88558447
Zn      42.25107980      50.91078078       0.00000000
Zn      42.25107980      49.02519631       5.65675342
Zn      42.25107980      50.91078078       3.77116895
Zn      42.25107980      49.02519631       9.42792236
Zn      42.25107980      50.91078078       7.54233789
Zn      42.25107980      49.02519631      13.19909131
Zn      42.25107980      50.91078078      11.31350684
Zn      42.25107980      49.02519631      16.97026026
Zn      42.25107980      50.91078078      15.08467579
Zn      42.25107980      49.02519631      20.74142921
Zn      42.25107980      50.91078078      18.85584474
Zn      42.25107980      49.02519631      24.51259815
Zn      42.25107980      50.91078078      22.62701368
Zn      42.25107980      49.02519631      28.28376710
Zn      42.25107980      50.91078078      26.39818263
Zn      42.25107980      49.02519631      32.05493605
Zn      42.25107980      50.91078078      30.16935158
Zn      42.25107980      49.02519631      35.82610499
Zn      42.25107980      50.91078078      33.94052052
Zn      42.25107980      52.79636526       1.88558447
Zn      42.25107980      54.68194973       0.00000000
Zn      42.25107980      52.79636526       5.65675342
Zn      42.25107980      54.68194973       3.77116895
Zn      42.25107980      52.79636526       9.42792236
Zn      42.25107980      54.68194973       7.54233789
Zn      42.25107980      52.79636526      13.19909131
Zn      42.25107980      54.68194973      11.31350684
Zn      42.25107980      52.79636526      16.97026026
Zn      42.25107980      54.68194973      15.08467579
Zn      42.25107980      52.79636526      20.74142921
Zn      42.25107980      54.68194973      18.85584474
Zn      42.25107980      52.79636526      24.51259815
Zn      42.25107980      54.68194973      22.62701368
Zn      42.25107980      52.79636526      28.28376710
Zn      42.25107980      54.68194973      26.39818263
Zn      42.25107980      52.79636526      32.05493605
Zn      42.25107980      54.68194973      30.16935158
Zn      42.25107980      52.79636526      35.82610499
Zn      42.25107980      54.68194973      33.94052052
Zn      42.25107980      56.56753421       1.88558447
Zn      42.25107980      58.45311868       0.00000000
Zn      42.25107980      56.56753421       5.65675342
Zn      42.25107980      58.45311868       3.77116895
Zn      42.25107980      56.56753421       9.42792236
Zn      42.25107980      58.45311868       7.54233789
Zn      42.25107980      56.56753421      13.19909131
Zn      42.25107980      58.45311868      11.31350684
Zn      42.25107980      56.56753421      16.97026026
Zn      42.25107980      58.45311868      15.08467579
Zn      42.25107980      56.56753421      20.74142921
Zn      42.25107980      58.45311868      18.85584474
Zn      42.25107980      56.56753421      24.51259815
Zn      42.25107980      58.45311868      22.62701368
Zn      42.25107980      56.56753421      28.28376710
Zn      42.25107980      58.45311868      26.39818263
Zn      42.25107980      56.56753421      32.05493605
Zn      42.25107980      58.45311868      30.16935158
Zn      42.25107980      56.56753421      35.82610499
Zn      42.25107980      58.45311868      33.94052052
Zn      45.92508674       0.00000000       1.88558447
Zn      45.92508674       1.88558447       0.00000000
Zn      45.92508674       0.00000000       5.65675342
Zn      45.92508674       1.88558447       3.77116895
Zn      45.92508674       0.00000000       9.42792236
Zn      45.92508674       1.88558447       7.54233789
Zn      45.92508674       0.00000000      13.19909131
Zn      45.92508674       1.88558447      11.31350684
Zn      45.92508674       0.00000000      16.97026026
Zn      45.92508674       1.88558447      15.08467579
Zn      45.92508674       0.00000000      20.74142921
Zn      45.92508674       1.88558447      18.85584474
Zn      45.92508674       0.00000000      24.51259815
Zn      45.92508674       1.88558447      22.62701368
Zn      45.92508674       0.00000000      28.28376710
Zn      45.92508674       1.88558447      26.39818263
Zn      45.92508674       0.00000000      32.05493605
Zn      45.92508674       1.88558447      30.16935158
Zn      45.92508674       0.00000000      35.82610499
Zn      45.92508674       1.88558447      33.94052052
Zn      45.92508674       3.77116895       1.88558447
Zn      45.92508674       5.65675342       0.00000000
Zn      45.92508674       3.77116895       5.65675342
Zn      45.92508674       5.65675342       3.77116895
Zn      45.92508674       3.77116895       9.42792236
Zn      45.92508674       5.65675342       7.54233789
Zn      45.92508674       3.77116895      13.19909131
Zn      45.92508674       5.65675342      11.31350684
Zn      45.92508674       3.77116895      16.97026026
Zn      45.92508674       5.65675342      15.08467579
Zn      45.92508674       3.77116895      20.74142921
Zn      45.92508674       5.65675342      18.85584474
Zn      45.92508674       3.77116895      24.51259815
Zn      45.92508674       5.65675342      22.62701368
Zn      45.92508674       3.77116895      28.28376710
Zn      45.92508674       5.65675342      26.39818263
Zn      45.92508674       3.77116895      32.05493605
Zn      45.92508674       5.65675342      30.16935158
Zn      45.92508674       3.77116895      35.82610499
Zn      45.92508674       5.65675342      33.94052052
Zn      45.92508674       7.54233789       1.88558447
Zn      45.92508674       9.42792236       0.00000000
Zn      45.92508674       7.54233789       5.65675342
Zn      45.92508674       9.42792236       3.77116895
Zn      45.92508674       7.54233789       9.42792236
Zn      45.92508674       9.42792236       7.54233789
Zn      45.92508674       7.54233789      13.19909131
Zn      45.92508674       9.42792236      11.31350684
Zn      45.92508674       7.54233789      16.97026026
Zn      45.92508674       9.42792236      15.08467579
Zn      45.92508674       7.54233789      20.74142921
Zn      45.92508674       9.42792236      18.85584474
Zn      45.92508674       7.54233789      24.51259815
Zn      45.92508674       9.42792236      22.62701368
Zn      45.92508674       7.54233789      28.28376710
Zn      45.92508674       9.42792236      26.39818263
Zn      45.92508674       7.54233789      32.05493605
Zn      45.92508674       9.42792236      30.16935158
Zn      45.92508674       7.54233789      35.82610499
Zn      45.92508674       9.42792236      33.94052052
Zn      45.92508674      11.31350684       1.88558447
Zn      45.92508674      13.19909131       0.00000000
Zn      45.92508674      11.31350684       5.65675342
Zn      45.92508674      13.19909131       3.77116895
Zn      45.92508674      11.31350684       9.42792236
Zn      45.92508674      13.19909131       7.54233789
Zn      45.92508674      11.31350684      13.19909131
Zn      45.92508674      13.19909131      11.31350684
Zn      45.92508674      11.31350684      16.97026026
Zn      45.92508674      13.19909131      15.08467579
Zn      45.92508674      11.31350684      20.74142921
Zn      45.92508674      13.19909131      18.85584474
Zn      45.92508674      11.31350684      24.51259815
Zn      45.92508674      13.19909131      22.62701368
Zn      45.92508674      11.31350684      28.28376710
Zn      45.92508674      13.19909131      26.39818263
Zn      45.92508674      11.31350684      32.05493605
Zn      45.92508674      13.19909131      30.16935158
Zn      45.92508674      11.31350684      35.82610499
Zn      45.92508674      13.19909131      33.94052052
Zn      45.92508674      15.08467579       1.88558447
Zn      45.92508674      16.97026026       0.00000000
Zn      45.92508674      15.08467579       5.65675342
Zn      45.92508674      16.97026026       3.77116895
Zn      45.92508674      15.08467579       9.42792236
Zn      45.92508674      16.97026026       7.54233789
Zn      45.92508674      15.08467579      13.19909131
Zn      45.92508674      16.97026026      11.31350684
Zn      45.92508674      15.08467579      16.97026026
Zn      45.92508674      16.97026026      15.08467579
Zn      45.92508674      15.08467579      20.74142921
Zn      45.92508674      16.97026026      18.85584474
Zn      45.92508674      15.08467579      24.51259815
Zn      45.92508674      16.97026026      22.62701368
Zn      45.92508674      15.08467579      28.28376710
Zn      45.92508674      16.97026026      26.39818263
Zn      45.92508674      15.08467579      32.05493605
Zn      45.92508674      16.97026026      30.16935158
Zn      45.92508674      15.08467579      35.82610499
Zn      45.92508674      16.97026026      33.94052052
Zn      45.92508674      18.85584474       1.88558447
Zn      45.92508674      20.74142921       0.00000000
Zn      45.92508674      18.85584474       5.65675342
Zn      45.92508674      20.74142921       3.77116895
Zn      45.92508674      18.85584474       9.42792236
Zn      45.92508674      20.74142921       7.54233789
Zn      45.92508674      18.85584474      13.19909131
Zn      45.92508674      20.74142921      11.31350684
Zn      45.92508674      18.85584474      16.97026026
Zn      45.92508674      20.74142921      15.08467579
Zn      45.92508674      18.85584474      20.74142921
Zn      45.92508674      20.74142921      18.85584474
Zn      45.92508674      18.85584474      24.51259815
Zn      45.92508674      20.74142921      22.62701368
Zn      45.92508674      18.85584474      28.28376710
Zn      45.92508674      20.74142921      26.39818263
Zn      45.92508674      18.85584474      32.05493605
Zn      45.92508674      20.74142921      30.16935158
Zn      45.92508674      18.85584474      35.82610499
Zn      45.92508674      20.74142921      33.94052052
Zn      45.92508674      22.62701368       1.88558447
Zn      45.92508674      24.51259815       0.00000000
Zn      45.92508674      22.62701368       5.65675342
Zn      45.92508674      24.51259815       3.77116895
Zn      45.92508674      22.62701368       9.42792236
Zn      45.92508674      24.51259815       7.54233789
Zn      45.92508674      22.62701368      13.19909131
Zn      45.92508674      24.51259815      11.31350684
Zn      45.92508674      22.62701368      16.97026026
Zn      45.92508674      24.51259815      15.08467579
Zn      45.92508674      22.62701368      20.74142921
Zn      45.92508674      24.51259815      18.85584474
Zn      45.92508674      22.62701368      24.51259815
Zn      45.92508674      24.51259815      22.62701368
Zn      45.92508674      22.62701368      28.28376710
Zn      45.92508674      24.51259815      26.39818263
Zn      45.92508674      22.62701368      32.05493605
Zn      45.92508674      24.51259815      30.16935158
Zn      45.92508674      22.62701368      35.82610499
Zn      45.92508674      24.51259815      33.94052052
Zn      45.92508674      26.39818263       1.88558447
Zn      45.92508674      28.28376710       0.00000000
Zn      45.92508674      26.39818263       5.65675342
Zn      45.92508674      28.28376710       3.77116895
Zn      45.92508674      26.39818263       9.42792236
Zn      45.92508674      28.28376710       7.54233789
Zn      45.92508674      26.39818263      13.19909131
Zn      45.92508674      28.28376710      11.31350684
Zn      45.92508674      26.39818263      16.97026026
Zn      45.92508674      28.28376710      15.08467579
Zn      45.92508674      26.39818263      20.74142921
Zn      45.92508674      28.28376710      18.85584474
Zn      45.92508674      26.39818263      24.51259815
Zn      45.92508674      28.28376710      22.62701368
Zn      45.92508674      26.39818263      28.28376710
Zn      45.92508674      28.28376710      26.39818263
Zn      45.92508674      26.39818263      32.05493605
Zn      45.92508674      28.28376710      30.16935158
Zn      45.92508674      26.39818263      35.82610499
Zn      45.92508674      28.28376710      33.94052052
Zn      45.92508674      30.16935158       1.88558447
Zn      45.92508674      32.05493605       0.00000000
Zn      45.92508674      30.16935158       5.65675342
Zn      45.92508674      32.05493605       3.77116895
Zn      45.92508674      30.16935158       9.42792236
Zn      45.92508674      32.05493605       7.54233789
Zn      45.92508674      30.16935158      13.19909131
Zn      45.92508674      32.05493605      11.31350684
Zn      45.92508674      30.16935158      16.97026026
Zn      45.92508674      32.05493605      15.08467579
Zn      45.92508674      30.16935158      20.74142921
Zn      45.92508674      32.05493605      18.85584474
Zn      45.92508674      30.16935158      24.51259815
Zn      45.92508674      32.05493605      22.62701368
Zn      45.92508674      30.16935158      28.28376710
Zn      45.92508674      32.05493605      26.39818263
Zn      45.92508674      30.16935158      32.05493605
Zn      45.92508674      32.05493605      30.16935158
Zn      45.92508674      30.16935158      35.82610499
Zn      45.92508674      32.05493605      33.94052052
Zn      45.92508674      33.94052052       1.88558447
Zn      45.92508674      35.82610499       0.00000000
Zn      45.92508674      33.94052052       5.65675342
Zn      45.92508674      35.82610499       3.77116895
Zn      45.92508674      33.94052052       9.42792236
Zn      45.92508674      35.82610499       7.54233789
Zn      45.92508674      33.94052052      13.19909131
Zn      45.92508674      35.82610499      11.31350684
Zn      45.92508674      33.94052052      16.97026026
Zn      45.92508674      35.82610499      15.08467579
Zn      45.92508674      33.94052052      20.74142921
Zn      45.92508674      35.82610499      18.85584474
Zn      45.92508674      33.94052052      24.51259815
Zn      45.92508674      35.82610499      22.62701368
Zn      45.92508674      33.94052052      28.28376710
Zn      45.92508674      35.82610499      26.39818263
Zn      45.92508674      33.94052052      32.05493605
Zn      45.92508674      35.82610499      30.16935158
Zn      45.92508674      33.94052052      35.82610499
Zn      45.92508674      35.82610499      33.94052052
Zn      45.92508674      37.71168947       1.88558447
Zn      45.92508674      39.59727394       0.00000000
Zn      45.92508674      37.71168947       5.65675342
Zn      45.92508674      39.59727394       3.77116895
Zn      45.92508674      37.71168947       9.42792236
Zn      45.92508674      39.59727394       7.54233789
Zn      45.92508674      37.71168947      13.19909131
Zn      45.92508674      39.59727394      11.31350684
Zn      45.92508674      37.71168947      16.97026026
Zn      45.92508674      39.59727394      15.08467579
Zn      45.92508674      37.71168947      20.74142921
Zn      45.92508674      39.59727394      18.85584474
Zn      45.92508674      37.71168947      24.51259815
Zn      45.92508674      39.59727394      22.62701368
Zn      45.92508674      37.71168947      28.28376710
Zn      45.92508674      39.59727394      26.39818263
Zn      45.92508674      37.71168947      32.05493605
Zn      45.92508674      39.59727394      30.16935158
Zn      45.92508674      37.71168947      35.82610499
Zn      45.92508674      39.59727394      33.94052052
Zn      45.92508674      41.48285842       1.88558447
Zn      45.92508674      43.36844289       0.00000000
Zn      45.92508674      41.48285842       5.65675342
Zn      45.92508674      43.36844289       3.77116895
Zn      45.92508674      41.48285842       9.42792236
Zn      45.92508674      43.36844289       7.54233789
Zn      45.92508674      41.48285842      13.19909131
Zn      45.92508674      43.36844289      11.31350684
Zn      45.92508674      41.48285842      16.97026026
Zn      45.92508674      43.36844289      15.08467579
Zn      45.92508674      41.48285842      20.74142921
Zn      45.92508674      43.36844289      18.85584474
Zn      45.92508674      41.48285842      24.51259815
Zn      45.92508674      43.36844289      22.62701368
Zn      45.92508674      41.48285842      28.28376710
Zn      45.92508674      43.36844289      26.39818263
Zn      45.92508674      41.48285842      32.05493605
Zn      45.92508674      43.36844289      30.16935158
Zn      45.92508674      41.48285842      35.82610499
Zn      45.92508674      43.36844289      33.94052052
Zn      45.92508674      45.25402737       1.88558447
Zn      45.92508674      47.13961184       0.00000000
Zn      45.92508674      45.25402737       5.65675342
Zn      45.92508674      47.13961184       3.77116895
Zn      45.92508674      45.25402737       9.42792236
Zn      45.92508674      47.13961184       7.54233789
Zn      45.92508674      45.25402737      13.19909131
Zn      45.92508674      47.13961184      11.31350684
Zn      45.92508674      45.25402737      16.97026026
Zn      45.92508674      47.13961184      15.08467579
Zn      45.92508674      45.25402737      20.74142921
Zn      45.92508674      47.13961184      18.85584474
Zn      45.92508674      45.25402737      24.51259815
Zn      45.92508674      47.13961184      22.62701368
Zn      45.92508674      45.25402737      28.28376710
Zn      45.92508674      47.13961184      26.39818263
Zn      45.92508674      45.25402737      32.05493605
Zn      45.92508674      47.13961184      30.16935158
Zn      45.92508674      45.25402737      35.82610499
Zn      45.92508674      47.13961184      33.94052052
Zn      45.92508674      49.02519631       1.88558447
Zn      45.92508674      50.91078078       0.00000000
Zn      45.92508674      49.02519631       5.65675342
Zn      45.92508674      50.91078078       3.77116895
Zn      45.92508674      49.02519631       9.42792236
Zn      45.92508674      50.91078078       7.54233789
Zn      45.92508674      49.02519631      13.19909131
Zn      45.92508674      50.91078078      11.31350684
Zn      45.92508674      49.02519631      16.97026026
Zn      45.92508674      50.91078078      15.08467579
Zn      45.92508674      49.02519631      20.74142921
Zn      45.92508674      50.91078078      18.85584474
Zn      45.92508674      49.02519631      24.51259815
Zn      45.92508674      50.91078078      22.62701368
Zn      45.92508674      49.02519631      28.28376710
Zn      45.92508674      50.91078078      26.39818263
Zn      45.92508674      49.02519631      32.05493605
Zn      45.92508674      50.91078078      30.16935158
Zn      45.92508674      49.02519631      35.82610499
Zn      45.92508674      50.91078078      33.94052052
Zn      45.92508674      52.79636526       1.88558447
Zn      45.92508674      54.68194973       0.00000000
Zn      45.92508674      52.79636526       5.65675342
Zn      45.92508674      54.68194973       3.77116895
Zn      45.92508674      52.79636526       9.42792236
Zn      45.92508674      54.68194973       7.54233789
Zn      45.92508674      52.79636526      13.19909131
Zn      45.92508674      54.68194973      11.31350684
Zn      45.92508674      52.79636526      16.97026026
Zn      45.92508674      54.68194973      15.08467579
Zn      45.92508674      52.79636526      20.74142921
Zn      45.92508674      54.68194973      18.85584474
Zn      45.92508674      52.79636526      24.51259815
Zn      45.92508674      54.68194973      22.62701368
Zn      45.92508674      52.79636526      28.28376710
Zn      45.92508674      54.68194973      26.39818263
Zn      45.92508674      52.79636526      32.05493605
Zn      45.92508674      54.68194973      30.16935158
Zn      45.92508674      52.79636526      35.82610499
Zn      45.92508674      54.68194973      33.94052052
Zn      45.92508674      56.56753421       1.88558447
Zn      45.92508674      58.45311868       0.00000000
Zn      45.92508674      56.56753421       5.65675342
Zn      45.92508674      58.45311868       3.77116895
Zn      45.92508674      56.56753421       9.42792236
Zn      45.92508674      58.45311868       7.54233789
Zn      45.92508674      56.56753421      13.19909131
Zn      45.92508674      58.45311868      11.31350684
Zn      45.92508674      56.56753421      16.97026026
Zn      45.92508674      58.45311868      15.08467579
Zn      45.92508674      56.56753421      20.74142921
Zn      45.92508674      58.45311868      18.85584474
Zn      45.92508674      56.56753421      24.51259815
Zn      45.92508674      58.45311868      22.62701368
Zn      45.92508674      56.56753421      28.28376710
Zn      45.92508674      58.45311868      26.39818263
Zn      45.92508674      56.56753421      32.05493605
Zn      45.92508674      58.45311868      30.16935158
Zn      45.92508674      56.56753421      35.82610499
Zn      45.92508674      58.45311868      33.94052052
Zn      49.59909368       0.00000000       1.88558447
Zn      49.59909368       1.88558447       0.00000000
Zn      49.59909368       0.00000000       5.65675342
Zn      49.59909368       1.88558447       3.77116895
Zn      49.59909368       0.00000000       9.42792236
Zn      49.59909368       1.88558447       7.54233789
Zn      49.59909368       0.00000000      13.19909131
Zn      49.59909368       1.88558447      11.31350684
Zn      49.59909368       0.00000000      16.97026026
Zn      49.59909368       1.88558447      15.08467579
Zn      49.59909368       0.00000000      20.74142921
Zn      49.59909368       1.88558447      18.85584474
Zn      49.59909368       0.00000000      24.51259815
Zn      49.59909368       1.88558447      22.62701368
Zn      49.59909368       0.00000000      28.28376710
Zn      49.59909368       1.88558447      26.39818263
Zn      49.59909368       0.00000000      32.05493605
Zn      49.59909368       1.88558447      30.16935158
Zn      49.59909368       0.00000000      35.82610499
Zn      49.59909368       1.88558447      33.94052052
Zn      49.59909368       3.77116895       1.88558447
Zn      49.59909368       5.65675342       0.00000000
Zn      49.59909368       3.77116895       5.65675342
Zn      49.59909368       5.65675342       3.77116895
Zn      49.59909368       3.77116895       9.42792236
Zn      49.59909368       5.65675342       7.54233789
Zn      49.59909368       3.77116895      13.19909131
Zn      49.59909368       5.65675342      11.31350684
Zn      49.59909368       3.77116895      16.97026026
Zn      49.59909368       5.65675342      15.08467579
Zn      49.59909368       3.77116895      20.74142921
Zn      49.59909368       5.65675342      18.85584474
Zn      49.59909368       3.77116895      24.51259815
Zn      49.59909368       5.65675342      22.62701368
Zn      49.59909368       3.77116895      28.28376710
Zn      49.59909368       5.65675342      26.39818263
Zn      49.59909368       3.77116895      32.05493605
Zn      49.59909368       5.65675342      30.16935158
Zn      49.59909368       3.77116895      35.82610499
Zn      49.59909368       5.65675342      33.94052052
Zn      49.59909368       7.54233789       1.88558447
Zn      49.59909368       9.42792236       0.00000000
Zn      49.59909368       7.54233789       5.65675342
Zn      49.59909368       9.42792236       3.77116895
Zn      49.59909368       7.54233789       9.42792236
Zn      49.59909368       9.42792236       7.54233789
Zn      49.59909368       7.54233789      13.19909131
Zn      49.59909368       9.42792236      11.31350684
Zn      49.59909368       7.54233789      16.97026026
Zn      49.59909368       9.42792236      15.08467579
Zn      49.59909368       7.54233789      20.74142921
Zn      49.59909368       9.42792236      18.85584474
Zn      49.59909368       7.54233789      24.51259815
Zn      49.59909368       9.42792236      22.62701368
Zn      49.59909368       7.54233789      28.28376710
Zn      49.59909368       9.42792236      26.39818263
Zn      49.59909368       7.54233789      32.05493605
Zn      49.59909368       9.42792236      30.16935158
Zn      49.59909368       7.54233789      35.82610499
Zn      49.59909368       9.42792236      33.94052052
Zn      49.59909368      11.31350684       1.88558447
Zn      49.59909368      13.19909131       0.00000000
Zn      49.59909368      11.31350684       5.65675342
Zn      49.59909368      13.19909131       3.77116895
Zn      49.59909368      11.31350684       9.42792236
Zn      49.59909368      13.19909131       7.54233789
Zn      49.59909368      11.31350684      13.19909131
Zn      49.59909368      13.19909131      11.31350684
Zn      49.59909368      11.31350684      16.97026026
Zn      49.59909368      13.19909131      15.08467579
Zn      49.59909368      11.31350684      20.74142921
Zn      49.59909368      13.19909131      18.85584474
Zn      49.59909368      11.31350684      24.51259815
Zn      49.59909368      13.19909131      22.62701368
Zn      49.59909368      11.31350684      28.28376710
Zn      49.59909368      13.19909131      26.39818263
Zn      49.59909368      11.31350684      32.05493605
Zn      49.59909368      13.19909131      30.16935158
Zn      49.59909368      11.31350684      35.82610499
Zn      49.59909368      13.19909131      33.94052052
Zn      49.59909368      15.08467579       1.88558447
Zn      49.59909368      16.97026026       0.00000000
Zn      49.59909368      15.08467579       5.65675342
Zn      49.59909368      16.97026026       3.77116895
Zn      49.59909368      15.08467579       9.42792236
Zn      49.59909368      16.97026026       7.54233789
Zn      49.59909368      15.08467579      13.19909131
Zn      49.59909368      16.97026026      11.31350684
Zn      49.59909368      15.08467579      16.97026026
Zn      49.59909368      16.97026026      15.08467579
Zn      49.59909368      15.08467579      20.74142921
Zn      49.59909368      16.97026026      18.85584474
Zn      49.59909368      15.08467579      24.51259815
Zn      49.59909368      16.97026026      22.62701368
Zn      49.59909368      15.08467579      28.28376710
Zn      49.59909368      16.97026026      26.39818263
Zn      49.59909368      15.08467579      32.05493605
Zn      49.59909368      16.97026026      30.16935158
Zn      49.59909368      15.08467579      35.82610499
Zn      49.59909368      16.97026026      33.94052052
Zn      49.59909368      18.85584474       1.88558447
Zn      49.59909368      20.74142921       0.00000000
Zn      49.59909368      18.85584474       5.65675342
Zn      49.59909368      20.74142921       3.77116895
Zn      49.59909368      18.85584474       9.42792236
Zn      49.59909368      20.74142921       7.54233789
Zn      49.59909368      18.85584474      13.19909131
Zn      49.59909368      20.74142921      11.31350684
Zn      49.59909368      18.85584474      16.97026026
Zn      49.59909368      20.74142921      15.08467579
Zn      49.59909368      18.85584474      20.74142921
Zn      49.59909368      20.74142921      18.85584474
Zn      49.59909368      18.85584474      24.51259815
Zn      49.59909368      20.74142921      22.62701368
Zn      49.59909368      18.85584474      28.28376710
Zn      49.59909368      20.74142921      26.39818263
Zn      49.59909368      18.85584474      32.05493605
Zn      49.59909368      20.74142921      30.16935158
Zn      49.59909368      18.85584474      35.82610499
Zn      49.59909368      20.74142921      33.94052052
Zn      49.59909368      22.62701368       1.88558447
Zn      49.59909368      24.51259815       0.00000000
Zn      49.59909368      22.62701368       5.65675342
Zn      49.59909368      24.51259815       3.77116895
Zn      49.59909368      22.62701368       9.42792236
Zn      49.59909368      24.51259815       7.54233789
Zn      49.59909368      22.62701368      13.19909131
Zn      49.59909368      24.51259815      11.31350684
Zn      49.59909368      22.62701368      16.97026026
Zn      49.59909368      24.51259815      15.08467579
Zn      49.59909368      22.62701368      20.74142921
Zn      49.59909368      24.51259815      18.85584474
Zn      49.59909368      22.62701368      24.51259815
Zn      49.59909368      24.51259815      22.62701368
Zn      49.59909368      22.62701368      28.28376710
Zn      49.59909368      24.51259815      26.39818263
Zn      49.59909368      22.62701368      32.05493605
Zn      49.59909368      24.51259815      30.16935158
Zn      49.59909368      22.62701368      35.82610499
Zn      49.59909368      24.51259815      33.94052052
Zn      49.59909368      26.39818263       1.88558447
Zn      49.59909368      28.28376710       0.00000000
Zn      49.59909368      26.39818263       5.65675342
Zn      49.59909368      28.28376710       3.77116895
Zn      49.59909368      26.39818263       9.42792236
Zn      49.59909368      28.28376710       7.54233789
Zn      49.59909368      26.39818263      13.19909131
Zn      49.59909368      28.28376710      11.31350684
Zn      49.59909368      26.39818263      16.97026026
Zn      49.59909368      28.28376710      15.08467579
Zn      49.59909368      26.39818263      20.74142921
Zn      49.59909368      28.28376710      18.85584474
Zn      49.59909368      26.39818263      24.51259815
Zn      49.59909368      28.28376710      22.62701368
Zn      49.59909368      26.39818263      28.28376710
Zn      49.59909368      28.28376710      26.39818263
Zn      49.59909368      26.39818263      32.05493605
Zn      49.59909368      28.28376710      30.16935158
Zn      49.59909368      26.39818263      35.82610499
Zn      49.59909368      28.28376710      33.94052052
Zn      49.59909368      30.16935158       1.88558447
Zn      49.59909368      32.05493605       0.00000000
Zn      49.59909368      30.16935158       5.65675342
Zn      49.59909368      32.05493605       3.77116895
Zn      49.59909368      30.16935158       9.42792236
Zn      49.59909368      32.05493605       7.54233789
Zn      49.59909368      30.16935158      13.19909131
Zn      49.59909368      32.05493605      11.31350684
Zn      49.59909368      30.16935158      16.97026026
Zn      49.59909368      32.05493605      15.08467579
Zn      49.59909368      30.16935158      20.74142921
Zn      49.59909368      32.05493605      18.85584474
Zn      49.59909368      30.16935158      24.51259815
Zn      49.59909368      32.05493605      22.62701368
Zn      49.59909368      30.16935158      28.28376710
Zn      49.59909368      32.05493605      26.39818263
Zn      49.59909368      30.16935158      32.05493605
Zn      49.59909368      32.05493605      30.16935158
Zn      49.59909368      30.16935158      35.82610499
Zn      49.59909368      32.05493605      33.94052052
Zn      49.59909368      33.94052052       1.88558447
Zn      49.59909368      35.82610499       0.00000000
Zn      49.59909368      33.94052052       5.65675342
Zn      49.59909368      35.82610499       3.77116895
Zn      49.59909368      33.94052052       9.42792236
Zn      49.59909368      35.82610499       7.54233789
Zn      49.59909368      33.94052052      13.19909131
Zn      49.59909368      35.82610499      11.31350684
Zn      49.59909368      33.94052052      16.97026026
Zn      49.59909368      35.82610499      15.08467579
Zn      49.59909368      33.94052052      20.74142921
Zn      49.59909368      35.82610499      18.85584474
Zn      49.59909368      33.94052052      24.51259815
Zn      49.59909368      35.82610499      22.62701368
Zn      49.59909368      33.94052052      28.28376710
Zn      49.59909368      35.82610499      26.39818263
Zn      49.59909368      33.94052052      32.05493605
Zn      49.59909368      35.82610499      30.16935158
Zn      49.59909368      33.94052052      35.82610499
Zn      49.59909368      35.82610499      33.94052052
Zn      49.59909368      37.71168947       1.88558447
Zn      49.59909368      39.59727394       0.00000000
Zn      49.59909368      37.71168947       5.65675342
Zn      49.59909368      39.59727394       3.77116895
Zn      49.59909368      37.71168947       9.42792236
Zn      49.59909368      39.59727394       7.54233789
Zn      49.59909368      37.71168947      13.19909131
Zn      49.59909368      39.59727394      11.31350684
Zn      49.59909368      37.71168947      16.97026026
Zn      49.59909368      39.59727394      15.08467579
Zn      49.59909368      37.71168947      20.74142921
Zn      49.59909368      39.59727394      18.85584474
Zn      49.59909368      37.71168947      24.51259815
Zn      49.59909368      39.59727394      22.62701368
Zn      49.59909368      37.71168947      28.28376710
Zn      49.59909368      39.59727394      26.39818263
Zn      49.59909368      37.71168947      32.05493605
Zn      49.59909368      39.59727394      30.16935158
Zn      49.59909368      37.71168947      35.82610499
Zn      49.59909368      39.59727394      33.94052052
Zn      49.59909368      41.48285842       1.88558447
Zn      49.59909368      43.36844289       0.00000000
Zn      49.59909368      41.48285842       5.65675342
Zn      49.59909368      43.36844289       3.77116895
Zn      49.59909368      41.48285842       9.42792236
Zn      49.59909368      43.36844289       7.54233789
Zn      49.59909368      41.48285842      13.19909131
Zn      49.59909368      43.36844289      11.31350684
Zn      49.59909368      41.48285842      16.97026026
Zn      49.59909368      43.36844289      15.08467579
Zn      49.59909368      41.48285842      20.74142921
Zn      49.59909368      43.36844289      18.85584474
Zn      49.59909368      41.48285842      24.51259815
Zn      49.59909368      43.36844289      22.62701368
Zn      49.59909368      41.48285842      28.28376710
Zn      49.59909368      43.36844289      26.39818263
Zn      49.59909368      41.48285842      32.05493605
Zn      49.59909368      43.36844289      30.16935158
Zn      49.59909368      41.48285842      35.82610499
Zn      49.59909368      43.36844289      33.94052052
Zn      49.59909368      45.25402737       1.88558447
Zn      49.59909368      47.13961184       0.00000000
Zn      49.59909368      45.25402737       5.65675342
Zn      49.59909368      47.13961184       3.77116895
Zn      49.59909368      45.25402737       9.42792236
Zn      49.59909368      47.13961184       7.54233789
Zn      49.59909368      45.25402737      13.19909131
Zn      49.59909368      47.13961184      11.31350684
Zn      49.59909368      45.25402737      16.97026026
Zn      49.59909368      47.13961184      15.08467579
Zn      49.59909368      45.25402737      20.74142921
Zn      49.59909368      47.13961184      18.85584474
Zn      49.59909368      45.25402737      24.51259815
Zn      49.59909368      47.13961184      22.62701368
Zn      49.59909368      45.25402737      28.28376710
Zn      49.59909368      47.13961184      26.39818263
Zn      49.59909368      45.25402737      32.05493605
Zn      49.59909368      47.13961184      30.16935158
Zn      49.59909368      45.25402737      35.82610499
Zn      49.59909368      47.13961184      33.94052052
Zn      49.59909368      49.02519631       1.88558447
Zn      49.59909368      50.91078078       0.00000000
Zn      49.59909368      49.02519631       5.65675342
Zn      49.59909368      50.91078078       3.77116895
Zn      49.59909368      49.02519631       9.42792236
Zn      49.59909368      50.91078078       7.54233789
Zn      49.59909368      49.02519631      13.19909131
Zn      49.59909368      50.91078078      11.31350684
Zn      49.59909368      49.02519631      16.97026026
Zn      49.59909368      50.91078078      15.08467579
Zn      49.59909368      49.02519631      20.74142921
Zn      49.59909368      50.91078078      18.85584474
Zn      49.59909368      49.02519631      24.51259815
Zn      49.59909368      50.91078078      22.62701368
Zn      49.59909368      49.02519631      28.28376710
Zn      49.59909368      50.91078078      26.39818263
Zn      49.59909368      49.02519631      32.05493605
Zn      49.59909368      50.91078078      30.16935158
Zn      49.59909368      49.02519631      35.82610499
Zn      49.59909368      50.91078078      33.94052052
Zn      49.59909368      52.79636526       1.88558447
Zn      49.59909368      54.68194973       0.00000000
Zn      49.59909368      52.79636526       5.65675342
Zn      49.59909368      54.68194973       3.77116895
Zn      49.59909368      52.79636526       9.42792236
Zn      49.59909368      54.68194973       7.54233789
Zn      49.59909368      52.79636526      13.19909131
Zn      49.59909368      54.68194973      11.31350684
Zn      49.59909368      52.79636526      16.97026026
Zn      49.59909368      54.68194973      15.08467579
Zn      49.59909368      52.79636526      20.74142921
Zn      49.59909368      54.68194973      18.85584474
Zn      49.59909368      52.79636526      24.51259815
Zn      49.59909368      54.68194973      22.62701368
Zn      49.59909368      52.79636526      28.28376710
Zn      49.59909368      54.68194973      26.39818263
Zn      49.59909368      52.79636526      32.05493605
Zn      49.59909368      54.68194973      30.16935158
Zn      49.59909368      52.79636526      35.82610499
Zn      49.59909368      54.68194973      33.94052052
Zn      49.59909368      56.56753421       1.88558447
Zn      49.59909368      58.45311868       0.00000000
Zn      49.59909368      56.56753421       5.65675342
Zn      49.59909368      58.45311868       3.77116895
Zn      49.59909368      56.56753421       9.42792236
Zn      49.59909368      58.45311868       7.54233789
Zn      49.59909368      56.56753421      13.19909131
Zn      49.59909368      58.45311868      11.31350684
Zn      49.59909368      56.56753421      16.97026026
Zn      49.59909368      58.45311868      15.08467579
Zn      49.59909368      56.56753421      20.74142921
Zn      49.59909368      58.45311868      18.85584474
Zn      49.59909368      56.56753421      24.51259815
Zn      49.59909368      58.45311868      22.62701368
Zn      49.59909368      56.56753421      28.28376710
Zn      49.59909368      58.45311868      26.39818263
Zn      49.59909368      56.56753421      32.05493605
Zn      49.59909368      58.45311868      30.16935158
Zn      49.59909368      56.56753421      35.82610499
Zn      49.59909368      58.45311868      33.94052052
Zn      53.27310061       0.00000000       1.88558447
Zn      53.27310061       1.88558447       0.00000000
Zn      53.27310061       0.00000000       5.65675342
Zn      53.27310061       1.88558447       3.77116895
Zn      53.27310061       0.00000000       9.42792236
Zn      53.27310061       1.88558447       7.54233789
Zn      53.27310061       0.00000000      13.19909131
Zn      53.27310061       1.88558447      11.31350684
Zn      53.27310061       0.00000000      16.97026026
Zn      53.27310061       1.88558447      15.08467579
Zn      53.27310061       0.00000000      20.74142921
Zn      53.27310061       1.88558447      18.85584474
Zn      53.27310061       0.00000000      24.51259815
Zn      53.27310061       1.88558447      22.62701368
Zn      53.27310061       0.00000000      28.28376710
Zn      53.27310061       1.88558447      26.39818263
Zn      53.27310061       0.00000000      32.05493605
Zn      53.27310061       1.88558447      30.16935158
Zn      53.27310061       0.00000000      35.82610499
Zn      53.27310061       1.88558447      33.94052052
Zn      53.27310061       3.77116895       1.88558447
Zn      53.27310061       5.65675342       0.00000000
Zn      53.27310061       3.77116895       5.65675342
Zn      53.27310061       5.65675342       3.77116895
Zn      53.27310061       3.77116895       9.42792236
Zn      53.27310061       5.65675342       7.54233789
Zn      53.27310061       3.77116895      13.19909131
Zn      53.27310061       5.65675342      11.31350684
Zn      53.27310061       3.77116895      16.97026026
Zn      53.27310061       5.65675342      15.08467579
Zn      53.27310061       3.77116895      20.74142921
Zn      53.27310061       5.65675342      18.85584474
Zn      53.27310061       3.77116895      24.51259815
Zn      53.27310061       5.65675342      22.62701368
Zn      53.27310061       3.77116895      28.28376710
Zn      53.27310061       5.65675342      26.39818263
Zn      53.27310061       3.77116895      32.05493605
Zn      53.27310061       5.65675342      30.16935158
Zn      53.27310061       3.77116895      35.82610499
Zn      53.27310061       5.65675342      33.94052052
Zn      53.27310061       7.54233789       1.88558447
Zn      53.27310061       9.42792236       0.00000000
Zn      53.27310061       7.54233789       5.65675342
Zn      53.27310061       9.42792236       3.77116895
Zn      53.27310061       7.54233789       9.42792236
Zn      53.27310061       9.42792236       7.54233789
Zn      53.27310061       7.54233789      13.19909131
Zn      53.27310061       9.42792236      11.31350684
Zn      53.27310061       7.54233789      16.97026026
Zn      53.27310061       9.42792236      15.08467579
Zn      53.27310061       7.54233789      20.74142921
Zn      53.27310061       9.42792236      18.85584474
Zn      53.27310061       7.54233789      24.51259815
Zn      53.27310061       9.42792236      22.62701368
Zn      53.27310061       7.54233789      28.28376710
Zn      53.27310061       9.42792236      26.39818263
Zn      53.27310061       7.54233789      32.05493605
Zn      53.27310061       9.42792236      30.16935158
Zn      53.27310061       7.54233789      35.82610499
Zn      53.27310061       9.42792236      33.94052052
Zn      53.27310061      11.31350684       1.88558447
Zn      53.27310061      13.19909131       0.00000000
Zn      53.27310061      11.31350684       5.65675342
Zn      53.27310061      13.19909131       3.77116895
Zn      53.27310061      11.31350684       9.42792236
Zn      53.27310061      13.19909131       7.54233789
Zn      53.27310061      11.31350684      13.19909131
Zn      53.27310061      13.19909131      11.31350684
Zn      53.27310061      11.31350684      16.97026026
Zn      53.27310061      13.19909131      15.08467579
Zn      53.27310061      11.31350684      20.74142921
Zn      53.27310061      13.19909131      18.85584474
Zn      53.27310061      11.31350684      24.51259815
Zn      53.27310061      13.19909131      22.62701368
Zn      53.27310061      11.31350684      28.28376710
Zn      53.27310061      13.19909131      26.39818263
Zn      53.27310061      11.31350684      32.05493605
Zn      53.27310061      13.19909131      30.16935158
Zn      53.27310061      11.31350684      35.82610499
Zn      53.27310061      13.19909131      33.94052052
Zn      53.27310061      15.08467579       1.88558447
Zn      53.27310061      16.97026026       0.00000000
Zn      53.27310061      15.08467579       5.65675342
Zn      53.27310061      16.97026026       3.77116895
Zn      53.27310061      15.08467579       9.42792236
Zn      53.27310061      16.97026026       7.54233789
Zn      53.27310061      15.08467579      13.19909131
Zn      53.27310061      16.97026026      11.31350684
Zn      53.27310061      15.08467579      16.97026026
Zn      53.27310061      16.97026026      15.08467579
Zn      53.27310061      15.08467579      20.74142921
Zn      53.27310061      16.97026026      18.85584474
Zn      53.27310061      15.08467579      24.51259815
Zn      53.27310061      16.97026026      22.62701368
Zn      53.27310061      15.08467579      28.28376710
Zn      53.27310061      16.97026026      26.39818263
Zn      53.27310061      15.08467579      32.05493605
Zn      53.27310061      16.97026026      30.16935158
Zn      53.27310061      15.08467579      35.82610499
Zn      53.27310061      16.97026026      33.94052052
Zn      53.27310061      18.85584474       1.88558447
Zn      53.27310061      20.74142921       0.00000000
Zn      53.27310061      18.85584474       5.65675342
Zn      53.27310061      20.74142921       3.77116895
Zn      53.27310061      18.85584474       9.42792236
Zn      53.27310061      20.74142921       7.54233789
Zn      53.27310061      18.85584474      13.19909131
Zn      53.27310061      20.74142921      11.31350684
Zn      53.27310061      18.85584474      16.97026026
Zn      53.27310061      20.74142921      15.08467579
Zn      53.27310061      18.85584474      20.74142921
Zn      53.27310061      20.74142921      18.85584474
Zn      53.27310061      18.85584474      24.51259815
Zn      53.27310061      20.74142921      22.62701368
Zn      53.27310061      18.85584474      28.28376710
Zn      53.27310061      20.74142921      26.39818263
Zn      53.27310061      18.85584474      32.05493605
Zn      53.27310061      20.74142921      30.16935158
Zn      53.27310061      18.85584474      35.82610499
Zn      53.27310061      20.74142921      33.94052052
Zn      53.27310061      22.62701368       1.88558447
Zn      53.27310061      24.51259815       0.00000000
Zn      53.27310061      22.62701368       5.65675342
Zn      53.27310061      24.51259815       3.77116895
Zn      53.27310061      22.62701368       9.42792236
Zn      53.27310061      24.51259815       7.54233789
Zn      53.27310061      22.62701368      13.19909131
Zn      53.27310061      24.51259815      11.31350684
Zn      53.27310061      22.62701368      16.97026026
Zn      53.27310061      24.51259815      15.08467579
Zn      53.27310061      22.62701368      20.74142921
Zn      53.27310061      24.51259815      18.85584474
Zn      53.27310061      22.62701368      24.51259815
Zn      53.27310061      24.51259815      22.62701368
Zn      53.27310061      22.62701368      28.28376710
Zn      53.27310061      24.51259815      26.39818263
Zn      53.27310061      22.62701368      32.05493605
Zn      53.27310061      24.51259815      30.16935158
Zn      53.27310061      22.62701368      35.82610499
Zn      53.27310061      24.51259815      33.94052052
Zn      53.27310061      26.39818263       1.88558447
Zn      53.27310061      28.28376710       0.00000000
Zn      53.27310061      26.39818263       5.65675342
Zn      53.27310061      28.28376710       3.77116895
Zn      53.27310061      26.39818263       9.42792236
Zn      53.27310061      28.28376710       7.54233789
Zn      53.27310061      26.39818263      13.19909131
Zn      53.27310061      28.28376710      11.31350684
Zn      53.27310061      26.39818263      16.97026026
Zn      53.27310061      28.28376710      15.08467579
Zn      53.27310061      26.39818263      20.74142921
Zn      53.27310061      28.28376710      18.85584474
Zn      53.27310061      26.39818263      24.51259815
Zn      53.27310061      28.28376710      22.62701368
Zn      53.27310061      26.39818263      28.28376710
Zn      53.27310061      28.28376710      26.39818263
Zn      53.27310061      26.39818263      32.05493605
Zn      53.27310061      28.28376710      30.16935158
Zn      53.27310061      26.39818263      35.82610499
Zn      53.27310061      28.28376710      33.94052052
Zn      53.27310061      30.16935158       1.88558447
Zn      53.27310061      32.05493605       0.00000000
Zn      53.27310061      30.16935158       5.65675342
Zn      53.27310061      32.05493605       3.77116895
Zn      53.27310061      30.16935158       9.42792236
Zn      53.27310061      32.05493605       7.54233789
Zn      53.27310061      30.16935158      13.19909131
Zn      53.27310061      32.05493605      11.31350684
Zn      53.27310061      30.16935158      16.97026026
Zn      53.27310061      32.05493605      15.08467579
Zn      53.27310061      30.16935158      20.74142921
Zn      53.27310061      32.05493605      18.85584474
Zn      53.27310061      30.16935158      24.51259815
Zn      53.27310061      32.05493605      22.62701368
Zn      53.27310061      30.16935158      28.28376710
Zn      53.27310061      32.05493605      26.39818263
Zn      53.27310061      30.16935158      32.05493605
Zn      53.27310061      32.05493605      30.16935158
Zn      53.27310061      30.16935158      35.82610499
Zn      53.27310061      32.05493605      33.94052052
Zn      53.27310061      33.94052052       1.88558447
Zn      53.27310061      35.82610499       0.00000000
Zn      53.27310061      33.94052052       5.65675342
Zn      53.27310061      35.82610499       3.77116895
Zn      53.27310061      33.94052052       9.42792236
Zn      53.27310061      35.82610499       7.54233789
Zn      53.27310061      33.94052052      13.19909131
Zn      53.27310061      35.82610499      11.31350684
Zn      53.27310061      33.94052052      16.97026026
Zn      53.27310061      35.82610499      15.08467579
Zn      53.27310061      33.94052052      20.74142921
Zn      53.27310061      35.82610499      18.85584474
Zn      53.27310061      33.94052052      24.51259815
Zn      53.27310061      35.82610499      22.62701368
Zn      53.27310061      33.94052052      28.28376710
Zn      53.27310061      35.82610499      26.39818263
Zn      53.27310061      33.94052052      32.05493605
Zn      53.27310061      35.82610499      30.16935158
Zn      53.27310061      33.94052052      35.82610499
Zn      53.27310061      35.82610499      33.94052052
Zn      53.27310061      37.71168947       1.88558447
Zn      53.27310061      39.59727394       0.00000000
Zn      53.27310061      37.71168947       5.65675342
Zn      53.27310061      39.59727394       3.77116895
Zn      53.27310061      37.71168947       9.42792236
Zn      53.27310061      39.59727394       7.54233789
Zn      53.27310061      37.71168947      13.19909131
Zn      53.27310061      39.59727394      11.31350684
Zn      53.27310061      37.71168947      16.97026026
Zn      53.27310061      39.59727394      15.08467579
Zn      53.27310061      37.71168947      20.74142921
Zn      53.27310061      39.59727394      18.85584474
Zn      53.27310061      37.71168947      24.51259815
Zn      53.27310061      39.59727394      22.62701368
Zn      53.27310061      37.71168947      28.28376710
Zn      53.27310061      39.59727394      26.39818263
Zn      53.27310061      37.71168947      32.05493605
Zn      53.27310061      39.59727394      30.16935158
Zn      53.27310061      37.71168947      35.82610499
Zn      53.27310061      39.59727394      33.94052052
Zn      53.27310061      41.48285842       1.88558447
Zn      53.27310061      43.36844289       0.00000000
Zn      53.27310061      41.48285842       5.65675342
Zn      53.27310061      43.36844289       3.77116895
Zn      53.27310061      41.48285842       9.42792236
Zn      53.27310061      43.36844289       7.54233789
Zn      53.27310061      41.48285842      13.19909131
Zn      53.27310061      43.36844289      11.31350684
Zn      53.27310061      41.48285842      16.97026026
Zn      53.27310061      43.36844289      15.08467579
Zn      53.27310061      41.48285842      20.74142921
Zn      53.27310061      43.36844289      18.85584474
Zn      53.27310061      41.48285842      24.51259815
Zn      53.27310061      43.36844289      22.62701368
Zn      53.27310061      41.48285842      28.28376710
Zn      53.27310061      43.36844289      26.39818263
Zn      53.27310061      41.48285842      32.05493605
Zn      53.27310061      43.36844289      30.16935158
Zn      53.27310061      41.48285842      35.82610499
Zn      53.27310061      43.36844289      33.94052052
Zn      53.27310061      45.25402737       1.88558447
Zn      53.27310061      47.13961184       0.00000000
Zn      53.27310061      45.25402737       5.65675342
Zn      53.27310061      47.13961184       3.77116895
Zn      53.27310061      45.25402737       9.42792236
Zn      53.27310061      47.13961184       7.54233789
Zn      53.27310061      45.25402737      13.19909131
Zn      53.27310061      47.13961184      11.31350684
Zn      53.27310061      45.25402737      16.97026026
Zn      53.27310061      47.13961184      15.08467579
Zn      53.27310061      45.25402737      20.74142921
Zn      53.27310061      47.13961184      18.85584474
Zn      53.27310061      45.25402737      24.51259815
Zn      53.27310061      47.13961184      22.62701368
Zn      53.27310061      45.25402737      28.28376710
Zn      53.27310061      47.13961184      26.39818263
Zn      53.27310061      45.25402737      32.05493605
Zn      53.27310061      47.13961184      30.16935158
Zn      53.27310061      45.25402737      35.82610499
Zn      53.27310061      47.13961184      33.94052052
Zn      53.27310061      49.02519631       1.88558447
Zn      53.27310061      50.91078078       0.00000000
Zn      53.27310061      49.02519631       5.65675342
Zn      53.27310061      50.91078078       3.77116895
Zn      53.27310061      49.02519631       9.42792236
Zn      53.27310061      50.91078078       7.54233789
Zn      53.27310061      49.02519631      13.19909131
Zn      53.27310061      50.91078078      11.31350684
Zn      53.27310061      49.02519631      16.97026026
Zn      53.27310061      50.91078078      15.08467579
Zn      53.27310061      49.02519631      20.74142921
Zn      53.27310061      50.91078078      18.85584474
Zn      53.27310061      49.02519631      24.51259815
Zn      53.27310061      50.91078078      22.62701368
Zn      53.27310061      49.02519631      28.28376710
Zn      53.27310061      50.91078078      26.39818263
Zn      53.27310061      49.02519631      32.05493605
Zn      53.27310061      50.91078078      30.16935158
Zn      53.27310061      49.02519631      35.82610499
Zn      53.27310061      50.91078078      33.94052052
Zn      53.27310061      52.79636526       1.88558447
Zn      53.27310061      54.68194973       0.00000000
Zn      53.27310061      52.79636526       5.65675342
Zn      53.27310061      54.68194973       3.77116895
Zn      53.27310061      52.79636526       9.42792236
Zn      53.27310061      54.68194973       7.54233789
Zn      53.27310061      52.79636526      13.19909131
Zn      53.27310061      54.68194973      11.31350684
Zn      53.27310061      52.79636526      16.97026026
Zn      53.27310061      54.68194973      15.08467579
Zn      53.27310061      52.79636526      20.74142921
Zn      53.27310061      54.68194973      18.85584474
Zn      53.27310061      52.79636526      24.51259815
Zn      53.27310061      54.68194973      22.62701368
Zn      53.27310061      52.79636526      28.28376710
Zn      53.27310061      54.68194973      26.39818263
Zn      53.27310061      52.79636526      32.05493605
Zn      53.27310061      54.68194973      30.16935158
Zn      53.27310061      52.79636526      35.82610499
Zn      53.27310061      54.68194973      33.94052052
Zn      53.27310061      56.56753421       1.88558447
Zn      53.27310061      58.45311868       0.00000000
Zn      53.27310061      56.56753421       5.65675342
Zn      53.27310061      58.45311868       3.77116895
Zn      53.27310061      56.56753421       9.42792236
Zn      53.27310061      58.45311868       7.54233789
Zn      53.27310061      56.56753421      13.19909131
Zn      53.27310061      58.45311868      11.31350684
Zn      53.27310061      56.56753421      16.97026026
Zn      53.27310061      58.45311868      15.08467579
Zn      53.27310061      56.56753421      20.74142921
Zn      53.27310061      58.45311868      18.85584474
Zn      53.27310061      56.56753421      24.51259815
Zn      53.27310061      58.45311868      22.62701368
Zn      53.27310061      56.56753421      28.28376710
Zn      53.27310061      58.45311868      26.39818263
Zn      53.27310061      56.56753421      32.05493605
Zn      53.27310061      58.45311868      30.16935158
Zn      53.27310061      56.56753421      35.82610499
Zn      53.27310061      58.45311868      33.94052052
