Generated-Hybrid-Cuckoo-Search
1.0
	2	0	0
	0	2	0
	0	0	2
2   30   
Cartesian
0.000000 	0.000000	0.000000
0.500000 	0.000000	1.500000
1.000000 	0.000000	0.000000
0.000000 	1.000000	0.000000
1.000000 	1.000000	0.000000
0.000000 	0.000000	1.000000
1.000000 	0.000000	1.000000
0.000000 	1.000000	1.000000
1.000000 	1.000000	1.000000
0.500000 	0.000000	0.500000
1.500000 	0.000000	0.500000
0.500000 	1.000000	0.500000
1.500000 	1.000000	0.500000
1.500000 	0.000000	1.500000
0.500000 	1.000000	1.500000
1.500000 	1.000000	1.500000
0.000000 	0.500000	0.500000
1.000000 	0.500000	0.500000
0.000000 	1.500000	0.500000
1.000000 	1.500000	0.500000
0.000000 	0.500000	1.500000
1.000000 	0.500000	1.500000
0.000000 	1.500000	1.500000
1.000000 	1.500000	1.500000
0.500000 	0.500000	0.000000
1.500000 	0.500000	0.000000
0.500000 	1.500000	0.000000
1.500000 	1.500000	0.000000
0.500000 	0.500000	1.000000
1.500000 	0.500000	1.000000
0.500000 	1.500000	1.000000
1.500000 	1.500000	1.000000
