LAMMPS data file via write_data, version 22 Jul 2025, timestep = 4, units = metal

4 atoms
1 atom types

-0.00225036245289647 3.6322504768528967 xlo xhi
-0.002250362452896486 3.6322504768528967 ylo yhi
-0.0022503624528964665 3.6322504768528967 zlo zhi
0 0 0 xy xz yz

Masses

1 63.55

Atoms # atomic

1 1 -0.0022503618651055304 -0.002250361865105548 -0.002250361865105501 0 0 0
2 1 -0.002250361865105535 1.8150000594156805 1.8150000594156812 0 0 0
3 1 1.8150000594156805 -0.0022503618651055473 1.8150000594156812 0 0 0
4 1 1.8150000594156805 1.8150000594156805 -0.002250361865105506 0 0 0

Velocities

1 0 0 0
2 0 0 0
3 0 0 0
4 0 0 0
